%chk=C25H28O13_Conf_Cluster_0001.chk
%nproc=4
%mem=2000Mb
#p m062x-6-31G* opt

Conformer number 000. Energy MM = 0.000 kcal/mol

0 1
C          0.58900       -1.07100       -6.03300
H          0.35800       -1.82500       -5.25200
O          1.97500       -1.13800       -6.37100
C          2.81800       -0.91300       -5.23900
O          4.19000       -0.90100       -5.62200
H          2.63900       -1.68600       -4.46700
C          2.53800        0.44100       -4.61800
H          2.71100        1.18600       -5.42000
O          3.43200        0.75400       -3.54100
H          4.29300        0.75800       -3.96000
C          1.09200        0.53300       -4.21600
H          0.88100       -0.27500       -3.49300
O          0.74400        1.73300       -3.51500
H          1.36400        2.38700       -3.82700
C          0.25500        0.28800       -5.45100
H          0.49600        1.06700       -6.20200
O         -1.13900        0.30300       -5.20400
H         -1.31400        1.05000       -4.63200
C         -0.22500       -1.45200       -7.24400
H         -1.28500       -1.54600       -6.95500
O         -0.08800       -0.52700       -8.34700
H          0.09700       -2.45400       -7.57600
O          5.12500       -2.51400       -4.18600
C          5.86800       -3.64500       -4.02200
H          5.66900       -4.10300       -3.05100
C          6.75600       -4.09100       -4.95100
C          6.90200       -3.34600       -6.28500
C          6.04800       -2.07500       -6.32300
C          4.81100       -2.18200       -5.54100
C          7.53400       -5.30800       -4.58400
O          8.34300       -5.79700       -5.34600
O          7.34500       -5.85200       -3.34400
H          7.96500       -6.58500       -3.22700
C          8.37000       -3.01500       -6.64500
H          8.40600       -2.43200       -7.58000
H          8.95500       -3.92900       -6.84400
C          9.14100       -2.22700       -5.58100
O          9.12400       -2.34100       -4.37800
O          9.97200       -1.36600       -6.22700
H         10.57200       -0.95700       -5.58600
C          4.72100       -1.71000       -8.49400
C          5.84900       -1.65400       -7.77400
H          4.70100       -1.37600       -9.53100
H          3.77800       -2.07600       -8.08800
H          6.75100       -1.26700       -8.25500
H          6.53400       -4.02600       -7.07900
H          6.60600       -1.26000       -5.82000
H          4.15100       -2.96900       -5.94800
C         -1.15000       -0.37700       -9.20900
C         -0.91400        0.38200      -10.45700
C          0.31800        0.89500      -10.71100
O         -2.24700       -0.84600       -9.01800
H         -1.74500        0.47000      -11.15400
H          1.11300        0.79900       -9.97000
C          2.11100        1.78500      -12.18500
H          2.84800        1.49700      -11.41800
C          2.57100        2.34200      -13.36400
H          3.65200        2.49700      -13.50400
C          1.67500        2.69100      -14.38900
C          0.30500        2.49000      -14.19000
H         -0.41700        2.77500      -14.97100
C         -0.15300        1.92800      -13.00500
H         -1.23300        1.77200      -12.89000
C          0.74400        1.56000      -11.98700
O          2.20500        3.20700      -15.52900
H          1.55700        3.24300      -16.22400


