%chk=C25H28O13_Conf_Cluster_0004.chk
%nproc=4
%mem=2000Mb
#p m062x-6-31G* opt

Conformer number 003. Energy MM = 0.000 kcal/mol

0 1
C          3.47800        1.02300       -8.43800
H          3.16900        0.04600       -8.85600
O          4.46300        0.82300       -7.42200
C          3.94800       -0.03600       -6.39400
O          4.96300       -0.47200       -5.47800
H          3.47800       -0.92900       -6.85200
C          2.83500        0.66700       -5.63700
H          3.24500        1.60100       -5.21000
O          2.30800       -0.15000       -4.57900
H          3.04000       -0.31600       -3.99100
C          1.74000        1.03200       -6.61100
H          1.26200        0.07800       -6.90900
O          0.73500        1.87100       -6.02400
H          0.11900        2.02600       -6.74100
C          2.25400        1.69200       -7.86100
H          2.51500        2.73100       -7.57700
O          1.18800        1.69200       -8.79900
H          1.29000        2.45300       -9.37800
C          4.07600        1.80300       -9.58800
H          5.13100        1.50100       -9.69000
O          3.46600        1.47600      -10.85800
H          4.06400        2.88900       -9.41200
O          5.34800       -2.72900       -4.91600
C          6.03900       -3.89400       -5.07600
H          5.51100       -4.70700       -4.57600
C          7.23500       -3.99100       -5.71900
C          7.81800       -2.75000       -6.41000
C          7.07100       -1.48100       -5.99600
C          5.61900       -1.69900       -5.86800
C          7.88000       -5.34200       -5.69200
O          8.96200       -5.55400       -6.20400
O          7.22200       -6.34800       -5.04300
H          7.78400       -7.13500       -5.03600
C          9.34100       -2.56600       -6.21700
H          9.65600       -1.60000       -6.65100
H          9.92000       -3.34400       -6.74300
C          9.81300       -2.57400       -4.75900
O          9.32200       -3.10500       -3.79200
O         10.97900       -1.88000       -4.71000
H         11.35000       -1.94400       -3.82000
C          7.83100       -0.29000       -8.15600
C          7.32500       -0.29400       -6.91500
H          7.93300        0.64400       -8.70900
H          8.16000       -1.19300       -8.66700
H          7.00600        0.66200       -6.48700
H          7.66400       -2.91700       -7.49200
H          7.42100       -1.19000       -4.98500
H          5.23700       -2.04500       -6.84200
C          2.46000        2.18200      -11.44100
C          2.05100        1.60400      -12.73300
C          1.03600        2.18900      -13.42800
O          1.92100        3.17400      -10.98900
H          2.58900        0.71300      -13.05500
H          0.54100        3.07500      -13.02100
C         -0.68700        2.34800      -15.22300
H         -1.17200        3.17300      -14.68300
C         -1.26600        1.94300      -16.41100
H         -2.18400        2.43300      -16.77500
C         -0.70000        0.90800      -17.16800
C          0.47500        0.30200      -16.71200
H          0.93400       -0.51200      -17.29300
C          1.04600        0.70000      -15.50900
H          1.96100        0.18900      -15.18300
C          0.47100        1.72500      -14.74000
O         -1.33700        0.54200      -18.31300
H         -0.72900        0.14300      -18.92300


