%chk=C25H28O13_Conf_Cluster_0002.chk
%nproc=4
%mem=2000Mb
#p m062x-6-31G* opt

Conformer number 001. Energy MM = 0.000 kcal/mol

0 1
C          5.53900        1.64500       -1.98900
H          5.11700        0.96900       -1.22000
O          5.43900        1.03100       -3.28600
C          6.12000       -0.22800       -3.34400
O          6.18100       -0.81600       -4.64000
H          5.67800       -0.93400       -2.61300
C          7.58600       -0.04200       -3.03000
H          7.97700        0.62800       -3.82200
O          8.30700       -1.28600       -3.09500
H          7.97200       -1.67700       -3.90700
C          7.80600        0.63200       -1.71500
H          7.44400       -0.04600       -0.91600
O          9.18700        0.93200       -1.47000
H          9.65100        0.10800       -1.62100
C          7.00200        1.90100       -1.64400
H          7.40000        2.59000       -2.41500
O          7.09500        2.53000       -0.36500
H          8.03100        2.62700       -0.19000
C          4.69800        2.89500       -1.99000
H          5.09200        3.59900       -2.74100
O          3.31400        2.59900       -2.29000
H          4.76200        3.40000       -1.01300
O          4.71400       -2.71700       -4.56100
C          5.56300       -3.73000       -4.89700
H          5.92300       -4.23600       -4.00300
C          5.84300       -3.99200       -6.20100
C          5.19800       -3.00400       -7.19900
C          5.32700       -1.58500       -6.63500
C          5.02800       -1.46100       -5.17300
C          6.72600       -5.17400       -6.49400
O          7.11500       -5.43600       -7.60800
O          7.08200       -5.99400       -5.45000
H          6.57600       -5.74700       -4.67400
C          5.66900       -3.12100       -8.66500
H          5.11100       -2.40600       -9.29700
H          5.45000       -4.12800       -9.06400
C          7.16100       -2.86700       -8.94100
O          8.05600       -2.55800       -8.19000
O          7.35100       -3.09000      -10.27100
H          8.29100       -3.11700      -10.49300
C          3.41100       -0.69700       -8.09800
C          4.53600       -0.53000       -7.39200
H          2.92400        0.15000       -8.58300
H          2.93100       -1.66600       -8.22200
H          4.95000        0.47800       -7.28600
H          4.13000       -3.28700       -7.22600
H          6.38900       -1.29900       -6.76700
H          4.14000       -0.82300       -5.01000
C          2.36600        3.57600       -2.08900
C          0.97900        3.26200       -2.50900
C          0.79400        2.04900       -3.09600
O          2.62200        4.65700       -1.61500
H          0.19500        4.01000       -2.35900
H          1.63900        1.36500       -3.20600
C         -0.37100        0.30500       -4.40200
H          0.59600       -0.20500       -4.51300
C         -1.47300       -0.26800       -5.00400
H         -1.38100       -1.20600       -5.57200
C         -2.72800        0.34700       -4.90300
C         -2.84300        1.54000       -4.18200
H         -3.82600        2.03300       -4.09600
C         -1.73800        2.12200       -3.57300
H         -1.90400        3.06300       -3.02400
C         -0.47500        1.50500       -3.68300
O         -3.78000       -0.25700       -5.51600
H         -4.56800        0.24400       -5.35600


