%chk=C25H28O13_Conf_Cluster_0007.chk
%nproc=4
%mem=2000Mb
#p m062x-6-31G* opt

Conformer number 006. Energy MM = 0.000 kcal/mol

0 1
C          5.92700       -0.25500       -1.38500
H          6.96400       -0.28200       -1.76500
O          5.23400       -1.45400       -1.75400
C          5.09000       -1.62600       -3.17600
O          4.42600       -2.85800       -3.53100
H          6.08800       -1.59600       -3.64700
C          4.28100       -0.47500       -3.74500
H          3.29700       -0.49400       -3.23800
O          4.07800       -0.53800       -5.16500
H          3.65300       -1.38000       -5.34200
C          4.94500        0.83400       -3.44100
H          5.90300        0.85100       -3.99900
O          4.15500        1.95500       -3.86700
H          3.89800        1.74200       -4.76500
C          5.27100        0.98400       -1.97900
H          4.31300        1.15600       -1.45000
O          6.15500        2.08100       -1.72900
H          5.74800        2.83500       -2.14900
C          5.99400       -0.17700        0.13300
H          5.21800       -0.83600        0.55000
O          7.29100       -0.55900        0.65300
H          5.75900        0.83500        0.49800
O          6.48400       -4.13300       -3.58600
C          7.07400       -5.26900       -4.05900
H          7.63000       -5.74600       -3.25400
C          6.93400       -5.68800       -5.35000
C          6.06200       -4.86700       -6.31100
C          5.40300       -3.65200       -5.61900
C          5.20500       -3.88000       -4.17500
C          7.61600       -6.95700       -5.76600
O          7.47100       -7.43100       -6.86900
O          8.41500       -7.56400       -4.83900
H          8.47500       -7.04400       -4.04000
C          6.84100       -4.47300       -7.59700
H          6.22400       -3.81700       -8.23600
H          7.08500       -5.36500       -8.19800
C          8.16500       -3.73200       -7.34300
O          8.65400       -3.39900       -6.29200
O          8.76200       -3.47300       -8.54900
H          9.58100       -3.00800       -8.31100
C          2.87800       -3.34500       -5.97200
C          4.14800       -3.28600       -6.39500
H          2.05600       -3.06300       -6.63000
H          2.59900       -3.68900       -4.97500
H          4.34200       -2.94800       -7.41800
H          5.24800       -5.54100       -6.64600
H          6.09500       -2.78900       -5.68400
H          4.59000       -4.78100       -4.02400
C          7.65700       -0.16900        1.92200
C          9.03400       -0.52000        2.33400
C          9.83100       -1.17600        1.45100
O          6.93200        0.43400        2.68000
H          9.36100       -0.22800        3.33000
H          9.44000       -1.43900        0.46400
C         11.91100       -2.17600        0.56700
H         11.39200       -2.31700       -0.39100
C         13.22900       -2.57700        0.65000
H         13.74000       -3.03000       -0.21500
C         13.94400       -2.41700        1.84500
C         13.29900       -1.86000        2.95100
H         13.84400       -1.74700        3.89800
C         11.97600       -1.43600        2.87000
H         11.54700       -0.98800        3.78300
C         11.26000       -1.59300        1.66300
O         15.24100       -2.81600        1.84800
H         15.64200       -2.72000        2.70700


