%chk=C10H24O2_pair_081_092.chk
%nproc=8
%mem=8000Mb
#p opt b3lyp/6-31G**

Conformer number 585. Energy MM = 0.000 kcal/mol

0 1
H          0.70300        8.42900       20.42500
C          0.90700        7.67000       21.25700
C          0.64400        8.11100       22.68900
H          0.19200        6.86200       20.93800
H          1.94100        7.33700       21.21000
H          0.72900        7.26200       23.43000
H         -0.46700        8.44900       22.75500
C          1.58200        9.15100       23.22000
C          3.04200        8.87900       23.08600
H          1.47400       10.20200       22.79600
H          3.26000        8.85600       22.03600
H          3.25500        7.85000       23.46200
O          1.32600        9.53400       24.60100
H          1.56500        8.77400       25.10300
C          3.97800        9.89100       23.78000
H          3.70900       10.27100       24.80300
H          4.04400       10.77300       23.16300
H          5.01600        9.38600       23.79600
H          3.79600       13.32800       28.39500
C          3.75500       14.27200       27.89100
C          3.91000       14.18100       26.32100
H          2.73600       14.71600       28.01700
H          4.56200       14.85200       28.30400
H          4.89400       13.66800       26.15400
H          3.95500       15.19100       25.97900
C          2.94000       13.36500       25.59900
C          3.35900       13.51900       24.19900
H          2.96400       12.24800       25.86300
H          4.28400       12.94600       23.97000
H          3.47200       14.62400       23.96800
O          1.64400       13.87400       25.86400
H          1.10700       13.17200       25.47600
C          2.32300       13.16200       23.16600
H          1.32500       13.81100       23.27900
H          1.91800       12.23500       23.24600
H          2.60800       13.31800       22.09500


