%chk=C10H24O2_pair_007_035.chk
%nproc=8
%mem=8000Mb
#p opt b3lyp/6-31G**

Conformer number 081. Energy MM = 0.000 kcal/mol

0 1
H         22.93600        0.29600       -1.74400
C         23.63700        0.37400       -0.87600
C         23.09300        1.34700        0.17700
H         23.76600       -0.56100       -0.39100
H         24.65400        0.60800       -1.41100
H         23.43300        2.36100       -0.03900
H         23.52400        1.15900        1.12900
C         21.66200        1.28300        0.28500
C         21.15800        2.28500        1.21100
H         21.32600        1.47000       -0.75100
H         21.54500        3.30200        0.86700
H         21.69200        2.09100        2.15500
O         21.18300        0.01300        0.60600
H         21.62300       -0.62000        0.02700
C         19.65500        2.24600        1.32200
H         19.20800        2.56200        0.32000
H         19.35700        2.99200        2.10500
H         19.21200        1.19500        1.55800
H         26.86100        1.38200       -2.78400
C         26.15400        1.13400       -3.61800
C         26.84200        1.00300       -4.90000
H         25.56000        0.26700       -3.33200
H         25.50500        1.95100       -3.56800
H         27.58100        0.17000       -4.69600
H         27.40700        1.95200       -5.19400
C         26.08500        0.63700       -6.11000
C         26.90000        0.50500       -7.26900
H         25.67800       -0.35200       -5.91000
H         27.62900       -0.26500       -6.96300
H         27.45600        1.51000       -7.37700
O         24.95800        1.49000       -6.22200
H         24.36700        0.94500       -6.67200
C         26.28100        0.16800       -8.57200
H         27.09100        0.15900       -9.28400
H         25.54200        0.97200       -8.76000
H         25.70800       -0.82000       -8.64600


