%chk=C10H24O2_pair_064_095.chk
%nproc=8
%mem=8000Mb
#p opt b3lyp/6-31G**

Conformer number 527. Energy MM = 0.000 kcal/mol

0 1
H         12.56400       23.74700       18.39000
C         12.48100       22.75600       17.98700
C         12.93200       21.66400       18.95300
H         11.38500       22.54000       17.77400
H         13.03400       22.60700       17.12900
H         12.86600       20.57200       18.52600
H         12.26200       21.67000       19.84500
C         14.33500       21.82900       19.45600
C         14.81400       20.53300       20.02000
H         14.90900       22.32700       18.72700
H         15.21000       19.95400       19.23200
H         13.98600       20.01200       20.48000
O         14.30600       22.66400       20.61400
H         14.33000       23.63000       20.39100
C         15.99900       20.45600       21.07200
H         16.87700       20.74800       20.51400
H         16.07200       19.36100       21.47100
H         15.95700       21.08900       21.94900
H         12.19600       16.87700       21.16300
C         12.44500       17.92000       21.52300
C         11.39400       18.94000       21.04000
H         12.69100       17.88700       22.67400
H         13.40700       18.00000       21.00400
H         11.26200       18.89900       19.94200
H         11.84700       19.95300       21.04800
C         10.09600       18.82200       21.65300
C          9.53400       17.47500       21.76000
H         10.14900       19.27100       22.76500
H         10.13500       16.71800       22.36400
H          9.38800       17.07600       20.71500
O          9.22000       19.65200       20.90600
H          8.74100       20.12800       21.59200
C          8.13500       17.46000       22.37200
H          7.83000       16.43300       22.37000
H          7.48700       18.05800       21.76300
H          8.19400       17.83700       23.38900


