%chk=C10H24O2_pair_062_068.chk
%nproc=8
%mem=8000Mb
#p opt b3lyp/6-31G**

Conformer number 517. Energy MM = 0.000 kcal/mol

0 1
H         19.03600       19.39800       17.00600
C         19.34700       20.33400       17.52400
C         19.86200       20.01800       18.90100
H         19.97900       20.96200       16.87400
H         18.39100       20.90900       17.57700
H         19.08400       19.66800       19.61200
H         20.30400       20.89200       19.33300
C         20.85300       18.90500       18.87800
C         21.44200       18.41700       20.09800
H         20.23600       18.02400       18.46700
H         20.57200       18.09400       20.79200
H         21.91200       19.35400       20.55800
O         21.90600       19.34700       18.01900
H         21.75700       19.07700       17.13000
C         22.39500       17.18400       19.92200
H         22.88400       17.01300       20.90400
H         23.11000       17.35800       19.14000
H         21.73000       16.28900       19.64400
H         27.53800       16.26600       20.28000
C         26.99600       16.61900       19.47400
C         26.86000       15.57700       18.37600
H         27.57100       17.46500       19.12800
H         26.04200       17.10200       19.86400
H         27.87100       15.35100       18.18700
H         26.26900       15.88900       17.52800
C         26.21700       14.36900       18.88500
C         24.80500       14.43700       19.37400
H         26.85500       13.92800       19.67100
H         24.23600       14.73300       18.50800
H         24.57200       15.23100       20.10700
O         26.24000       13.31300       17.84800
H         27.16200       13.28500       17.50300
C         24.29200       13.01700       19.91900
H         24.71900       12.66400       20.85900
H         24.50400       12.23100       19.20800
H         23.20800       12.90500       20.10000


