%chk=C10H24O2_pair_057_086.chk
%nproc=8
%mem=8000Mb
#p opt b3lyp/6-31G**

Conformer number 492. Energy MM = 0.000 kcal/mol

0 1
H         21.83300       15.23000       -2.06400
C         21.70900       15.92100       -1.15000
C         22.12600       15.16400        0.16600
H         22.33500       16.82900       -1.34300
H         20.64600       16.36500       -1.09700
H         23.19500       14.92900        0.07600
H         21.54700       14.21000        0.18900
C         21.92900       15.82000        1.50700
C         22.27900       14.91600        2.65400
H         22.39800       16.83700        1.62100
H         23.39700       14.87500        2.82500
H         21.91500       13.86700        2.49900
O         20.54800       16.12700        1.51700
H         20.06300       15.29800        1.45400
C         21.66700       15.25000        4.05700
H         22.00800       16.28400        4.38900
H         22.07600       14.41800        4.68000
H         20.58300       15.08900        3.95800
H         20.12700       19.53800        3.39400
C         19.21900       18.86500        3.52200
C         17.96000       19.37300        2.73200
H         19.68300       18.00000        3.12500
H         19.12700       18.64600        4.55300
H         17.02800       18.77800        2.89800
H         18.22600       19.25400        1.66600
C         17.68900       20.75600        2.95100
C         16.57400       21.25400        2.22300
H         17.39400       20.90200        3.99100
H         15.65900       20.77600        2.56600
H         16.66700       21.15500        1.11500
O         18.88300       21.54900        2.73200
H         18.94700       21.59300        1.73600
C         16.43900       22.72500        2.61000
H         17.26100       23.36700        2.24800
H         16.32500       22.87600        3.73300
H         15.57200       23.28000        2.16800


