%chk=C10H24O2_pair_011_084.chk
%nproc=8
%mem=8000Mb
#p opt b3lyp/6-31G**

Conformer number 128. Energy MM = 0.000 kcal/mol

0 1
H         15.74100        9.60700       25.29400
C         16.74000        9.67100       24.77600
C         16.84900        8.56900       23.64800
H         16.90400       10.70700       24.27000
H         17.57500        9.62400       25.44800
H         16.48200        8.96500       22.69800
H         16.19000        7.76200       23.92400
C         18.18900        8.11500       23.42100
C         19.11500        9.16300       22.96000
H         18.54400        7.66500       24.39500
H         19.99400        8.73100       22.53100
H         19.36300        9.86000       23.79000
O         18.25600        7.02700       22.46700
H         17.95700        7.32300       21.62200
C         18.59300       10.00800       21.70400
H         17.48600       10.30500       21.70300
H         18.70500        9.32400       20.85700
H         19.24100       10.84400       21.43000
H         18.16300       13.78300       20.18500
C         18.57900       13.52200       21.13900
C         18.70500       14.75900       22.06900
H         18.02800       12.60900       21.42900
H         19.59300       13.17700       20.85200
H         19.23500       15.46900       21.41700
H         19.46300       14.52300       22.77800
C         17.57600       15.39500       22.67100
C         18.01900       16.69800       23.16500
H         16.81200       15.57400       21.92700
H         18.57400       17.26900       22.51100
H         18.73100       16.56200       24.03500
O         17.11200       14.66900       23.75500
H         16.17100       14.59000       23.68400
C         16.95500       17.64400       23.72900
H         16.53400       17.17100       24.65400
H         16.23700       17.75700       22.96200
H         17.23100       18.64300       24.10100


