%chk=C10H24O2_pair_037_044.chk
%nproc=8
%mem=8000Mb
#p opt b3lyp/6-31G**

Conformer number 363. Energy MM = 0.000 kcal/mol

0 1
H          3.78300       12.20400       10.95800
C          2.73000       12.39700       10.62200
C          2.04100       11.20800       10.07500
H          2.26200       12.70500       11.56600
H          2.76800       13.32500        9.91800
H          0.94500       11.32100        9.91300
H          2.17500       10.40200       10.85800
C          2.68400       10.78900        8.85900
C          1.93400        9.79700        8.09100
H          2.78400       11.61200        8.15800
H          1.78000        8.89200        8.68900
H          0.94200       10.24900        7.66700
O          4.05700       10.40000        9.18600
H          4.63500       10.95400        8.62400
C          2.74100        9.28000        6.89300
H          3.00100       10.13000        6.20700
H          2.00500        8.64400        6.34500
H          3.62700        8.63400        7.11200
H         -0.69500        7.80800        5.46700
C         -0.30500        7.45000        4.45700
C         -1.46100        7.07800        3.48900
H          0.35400        8.31800        4.10700
H          0.37600        6.67600        4.70600
H         -2.02800        7.96700        3.40100
H         -2.14400        6.37500        3.92700
C         -1.10100        6.65600        2.14500
C         -2.16300        6.27400        1.19500
H         -0.57800        7.42000        1.65200
H         -2.65300        5.33300        1.51000
H         -1.54900        5.95500        0.35300
O         -0.20200        5.62800        2.18100
H         -0.54800        4.97800        2.75200
C         -3.21200        7.29900        0.82200
H         -2.65800        8.15200        0.35500
H         -3.89400        7.55900        1.69600
H         -4.02900        6.85900        0.15300


