%chk=C10H24O2_pair_069_090.chk
%nproc=8
%mem=8000Mb
#p opt b3lyp/6-31G**

Conformer number 552. Energy MM = 0.000 kcal/mol

0 1
H         14.07600        9.77300        7.00600
C         13.33500       10.37000        6.43500
C         11.94700        9.76900        6.89000
H         13.45600       11.42400        6.68900
H         13.49700       10.30300        5.32600
H         11.83100        8.73300        6.50500
H         11.20700       10.36200        6.43400
C         11.72700        9.79200        8.37400
C         10.51200        9.08800        8.70200
H         12.58300        9.28300        8.82400
H          9.65100        9.47000        8.14600
H         10.30200        9.21800        9.80000
O         11.64800       11.10900        8.85800
H         12.54100       11.43800        8.80100
C         10.67000        7.57900        8.59900
H         10.70100        7.12600        7.51700
H          9.83300        7.15100        9.13100
H         11.62300        7.30000        9.08200
H          7.76300        6.73900        0.20300
C          6.97100        7.06500        0.90800
C          7.34000        7.97100        2.12400
H          6.25000        7.63600        0.35200
H          6.37900        6.10800        1.23400
H          6.43700        7.99000        2.81900
H          7.37500        9.06300        1.92200
C          8.42200        7.51100        2.88700
C          8.64500        8.17500        4.14200
H          8.04100        6.52800        3.17200
H          7.62400        8.21200        4.71600
H          8.96900        9.20000        3.90400
O          9.61700        7.31600        2.16500
H          9.91400        6.51900        2.62300
C          9.63200        7.45500        5.12100
H         10.67400        7.63600        4.81900
H          9.35800        6.44500        5.16200
H          9.41100        7.80800        6.11000


