%chk=C10H24O2_pair_058_085.chk
%nproc=8
%mem=8000Mb
#p opt b3lyp/6-31G**

Conformer number 497. Energy MM = 0.000 kcal/mol

0 1
H         14.73700       17.79000        6.31100
C         15.24700       18.61500        5.79500
C         14.44400       19.96100        5.76100
H         16.24000       18.70100        6.18100
H         15.38300       18.37300        4.75100
H         15.07600       20.79200        5.32800
H         14.28000       20.17600        6.87600
C         13.23600       19.80000        4.96600
C         12.47900       21.05200        4.70800
H         13.59500       19.38300        3.96500
H         12.34700       21.71100        5.61500
H         11.51500       20.60600        4.40100
O         12.31700       18.88500        5.46100
H         12.72900       18.01000        5.21700
C         13.01200       21.91200        3.57800
H         12.33500       22.72600        3.30800
H         13.04200       21.33000        2.61600
H         14.02500       22.27700        3.74000
H         18.01800       15.73400        5.93300
C         18.51600       16.47900        6.62200
C         17.86100       16.73700        8.03000
H         19.58700       16.41300        6.82100
H         18.30600       17.43100        6.01700
H         17.81000       15.82700        8.68200
H         16.80800       16.85300        7.65500
C         18.34400       17.92700        8.70600
C         17.81800       18.17400       10.01100
H         19.42400       17.71700        8.90500
H         18.31200       19.01500       10.57900
H         18.06700       17.30600       10.64800
O         18.15500       19.01200        7.89700
H         18.94600       19.22700        7.43200
C         16.29900       18.20500       10.04900
H         15.87400       18.86800        9.23200
H         15.95200       18.68300       11.05900
H         15.85900       17.25500        9.93800


