%chk=C10H24O2_pair_045_054.chk
%nproc=8
%mem=8000Mb
#p opt b3lyp/6-31G**

Conformer number 426. Energy MM = 0.000 kcal/mol

0 1
H         18.88600        2.67900       16.54000
C         18.53000        3.70500       16.82000
C         19.28900        4.80000       16.02200
H         17.46400        3.83100       16.45800
H         18.49800        3.90300       17.93500
H         19.05700        4.69300       14.97000
H         20.36200        4.76900       16.16600
C         18.88500        6.21700       16.29900
C         19.54800        7.14000       15.41100
H         17.82400        6.34800       16.02300
H         19.16800        6.89800       14.37600
H         20.62500        6.82600       15.37500
O         18.94900        6.47900       17.70900
H         19.84900        6.26200       17.95100
C         19.31400        8.58900       15.69100
H         19.48300        8.75600       16.78500
H         18.23800        8.82600       15.44400
H         19.91300        9.30900       15.06400
H         22.93300        5.63100       22.16200
C         22.98900        4.55000       22.37700
C         21.69700        3.95800       21.76900
H         23.87800        4.28700       21.84800
H         23.12300        4.44200       23.48900
H         21.76600        2.91500       22.03500
H         21.78900        4.00300       20.63200
C         20.48900        4.66400       22.19300
C         19.24300        4.01100       21.81300
H         20.49300        4.79200       23.38800
H         18.36400        4.52300       22.22100
H         19.13200        3.05100       22.32700
O         20.43200        6.00800       21.65700
H         19.60900        6.41500       21.97900
C         19.02900        3.81600       20.22200
H         18.68900        4.73600       19.69400
H         18.16800        3.04800       20.06000
H         19.93400        3.46100       19.72000


