%chk=C10H24O2_pair_031_051.chk
%nproc=8
%mem=8000Mb
#p opt b3lyp/6-31G**

Conformer number 316. Energy MM = 0.000 kcal/mol

0 1
H          3.67000       21.61700        3.82500
C          3.75700       21.02400        2.89700
C          3.62500       19.45600        3.04300
H          2.98600       21.47700        2.15600
H          4.71000       21.36500        2.42300
H          4.26300       19.13200        3.89800
H          4.03900       19.06000        2.11700
C          2.30000       18.93100        3.20900
C          2.17900       17.45400        3.25000
H          1.91000       19.19700        4.18900
H          2.49000       16.99100        4.23000
H          2.79700       16.97000        2.45500
O          1.59000       19.45700        2.15000
H          0.74500       19.65400        2.54300
C          0.73900       16.96000        3.03400
H          0.65100       15.84300        3.24400
H          0.39400       17.21400        2.02500
H         -0.01900       17.47600        3.64000
H         -2.36900       20.56200       -1.02000
C         -1.67900       20.69300       -0.18600
C         -2.37900       20.98500        1.15400
H         -1.22000       19.71700       -0.14800
H         -0.85600       21.44400       -0.46100
H         -3.12700       20.22000        1.32600
H         -2.86300       21.95000        1.19400
C         -1.50600       21.05600        2.40700
C         -0.45600       22.07800        2.33000
H         -2.09100       21.47100        3.28200
H         -0.98000       23.02900        2.18300
H          0.35800       21.92000        1.58700
O         -0.94400       19.80500        2.82400
H         -1.65700       19.20700        2.90400
C          0.29400       22.20900        3.73100
H          0.88500       23.13900        3.75900
H          0.99700       21.32800        3.93500
H         -0.36600       22.47200        4.59000


