%chk=C10H24O2_pair_043_077.chk
%nproc=8
%mem=8000Mb
#p opt b3lyp/6-31G**

Conformer number 414. Energy MM = 0.000 kcal/mol

0 1
H         13.71900        6.77500       18.50100
C         14.14000        5.99300       19.12700
C         15.67000        6.02400       19.18100
H         13.81400        6.21500       20.16600
H         13.61000        5.15100       18.79000
H         16.15300        5.63100       18.26300
H         15.97500        5.29300       19.95100
C         16.23800        7.34600       19.47300
C         16.18200        8.27900       18.36500
H         15.75700        7.70700       20.38500
H         15.09600        8.50500       18.15200
H         16.77700        7.81000       17.56000
O         17.59400        7.20200       20.05100
H         18.05300        7.11400       19.17300
C         16.80600        9.63900       18.58500
H         17.87100        9.50300       18.91100
H         16.32300       10.12900       19.43900
H         16.81600       10.25600       17.71600
H         18.01100        7.27400       11.92300
C         17.08800        6.79100       11.74700
C         16.49300        6.15200       13.02200
H         16.47600        7.59500       11.25900
H         17.38600        6.05200       10.91800
H         16.34700        6.99000       13.67600
H         17.27200        5.55600       13.59500
C         15.21100        5.42300       12.90000
C         14.75700        4.96800       14.23300
H         14.38900        5.95500       12.30400
H         15.52100        4.38500       14.75500
H         13.97200        4.24400       14.02200
O         15.49800        4.23600       12.11300
H         14.62000        3.74100       12.07700
C         14.16600        6.02600       15.17400
H         14.90200        6.86400       15.45400
H         13.75100        5.60800       16.11500
H         13.36900        6.48000       14.63500


