%chk=C10H24O2_pair_000_041.chk
%nproc=8
%mem=8000Mb
#p opt b3lyp/6-31G**

Conformer number 002. Energy MM = 0.000 kcal/mol

0 1
H          9.65300       13.53000        9.14100
C          8.67700       13.24300        9.58800
C          8.71400       11.82800       10.24500
H          8.30800       13.94500       10.33400
H          7.92300       13.29500        8.76300
H          9.10800       11.21700        9.44200
H          7.70000       11.38700       10.49000
C          9.60000       11.64300       11.37100
C          9.01700       12.41900       12.48100
H          9.51000       10.51700       11.63400
H          7.97500       12.21500       12.75000
H          8.96700       13.49300       12.14600
O         10.90000       12.08900       11.19600
H         11.21300       11.64900       10.39700
C          9.85400       12.34100       13.78500
H          9.31100       12.90000       14.53800
H         10.90300       12.78000       13.65000
H          9.94200       11.24000       14.23600
H         16.23400       15.33000       10.90200
C         15.45300       14.60500       11.19500
C         15.71400       13.26100       10.44400
H         15.37400       14.63200       12.29600
H         14.56000       15.08500       10.85100
H         16.74300       12.92200       10.82000
H         15.88300       13.50800        9.37500
C         14.61700       12.29700       10.60400
C         14.92000       10.86600       10.40700
H         14.25800       12.37400       11.62900
H         13.99800       10.31600       10.45200
H         15.62400       10.55000       11.25700
O         13.48000       12.64700        9.78400
H         13.17700       13.49900       10.06500
C         15.64500       10.53700        9.12200
H         16.44600       11.25500        8.90400
H         14.96800       10.68700        8.32900
H         16.15600        9.56900        9.12300


