%chk=C10H24O2_pair_047_069.chk
%nproc=8
%mem=8000Mb
#p opt b3lyp/6-31G**

Conformer number 438. Energy MM = 0.000 kcal/mol

0 1
H         20.52600        6.99500        5.88800
C         20.09500        7.64100        5.11500
C         18.97300        8.50600        5.66800
H         20.90400        8.34600        4.96200
H         19.78800        7.02800        4.17500
H         19.29300        8.91300        6.59500
H         18.11200        7.82000        6.00000
C         18.30300        9.48300        4.78400
C         17.15400       10.05200        5.46800
H         19.09900       10.24700        4.60700
H         17.48200       10.61400        6.36400
H         16.53700        9.20200        5.86100
O         17.97700        8.97000        3.50000
H         17.35200        8.25800        3.65100
C         16.16200       10.91500        4.71600
H         15.38000       11.23000        5.40700
H         15.69900       10.38200        3.88500
H         16.68000       11.77600        4.28000
H         14.07600        9.77300        7.00600
C         13.33500       10.37000        6.43500
C         11.94700        9.76900        6.89000
H         13.45600       11.42400        6.68900
H         13.49700       10.30300        5.32600
H         11.83100        8.73300        6.50500
H         11.20700       10.36200        6.43400
C         11.72700        9.79200        8.37400
C         10.51200        9.08800        8.70200
H         12.58300        9.28300        8.82400
H          9.65100        9.47000        8.14600
H         10.30200        9.21800        9.80000
O         11.64800       11.10900        8.85800
H         12.54100       11.43800        8.80100
C         10.67000        7.57900        8.59900
H         10.70100        7.12600        7.51700
H          9.83300        7.15100        9.13100
H         11.62300        7.30000        9.08200


