%chk=C10H24O2_pair_040_044.chk
%nproc=8
%mem=8000Mb
#p opt b3lyp/6-31G**

Conformer number 387. Energy MM = 0.000 kcal/mol

0 1
H         18.01100       13.71500        7.77500
C         18.96500       13.07600        7.49200
C         19.99200       13.08300        8.55600
H         18.67600       12.04700        7.28700
H         19.28900       13.56300        6.58000
H         19.58600       12.60700        9.43100
H         20.14500       14.06700        8.99500
C         21.25900       12.48900        8.22600
C         21.10000       11.11800        7.86100
H         21.63200       13.00400        7.38100
H         20.61200       11.10700        6.87000
H         20.42300       10.64300        8.56200
O         22.25200       12.70800        9.25600
H         21.91800       12.31500       10.09100
C         22.36700       10.21400        7.59900
H         23.07300       10.52400        6.84200
H         22.97300        9.96800        8.48100
H         22.03000        9.20600        7.35900
H         23.76700        7.80800        5.46700
C         24.15700        7.45000        4.45700
C         23.00100        7.07800        3.48900
H         24.81600        8.31800        4.10700
H         24.83800        6.67600        4.70600
H         22.43400        7.96700        3.40100
H         22.31800        6.37500        3.92700
C         23.36100        6.65600        2.14500
C         22.29900        6.27400        1.19500
H         23.88400        7.42000        1.65200
H         21.80900        5.33300        1.51000
H         22.91300        5.95500        0.35300
O         24.26000        5.62800        2.18100
H         23.91400        4.97800        2.75200
C         21.25000        7.29900        0.82200
H         21.80400        8.15200        0.35500
H         20.56800        7.55900        1.69600
H         20.43300        6.85900        0.15300


