%chk=C10H24O2_pair_042_074.chk
%nproc=8
%mem=8000Mb
#p opt b3lyp/6-31G**

Conformer number 406. Energy MM = 0.000 kcal/mol

0 1
H          5.15000       12.20200       21.15400
C          4.86300       12.78700       20.26900
C          6.10500       13.01300       19.44300
H          4.22400       12.02700       19.83000
H          4.33200       13.74600       20.59300
H          6.78200       13.62600       20.01500
H          5.80100       13.58100       18.52400
C          6.68900       11.81000       19.02900
C          8.07200       11.89300       18.51500
H          6.75600       11.10700       19.90400
H          8.26600       10.89100       17.93800
H          8.82500       11.80300       19.34300
O          5.86300       11.22800       17.98900
H          5.84200       10.25400       18.13800
C          8.35700       12.86600       17.38500
H          7.60700       12.72600       16.56200
H          9.27200       12.52300       16.97400
H          8.45100       13.98900       17.56500
H          5.80000       14.70800       13.78100
C          4.77100       14.52600       13.45200
C          4.02800       13.95100       14.59500
H          4.40600       15.50100       13.09600
H          4.90600       13.76000       12.60400
H          3.11200       13.48300       14.23300
H          3.63300       14.69700       15.29600
C          4.72100       12.98900       15.45600
C          5.46300       11.84900       14.89700
H          5.41100       13.64300       16.03900
H          5.85400       11.29600       15.76700
H          6.43500       12.13900       14.31000
O          3.79800       12.54400       16.44800
H          4.37000       12.14700       17.12000
C          4.60700       10.87800       14.22000
H          3.53800       10.99100       14.50500
H          4.90000        9.82000       14.39900
H          4.66300       11.15600       13.17200


