%chk=C10H24O2_pair_015_094.chk
%nproc=8
%mem=8000Mb
#p opt b3lyp/6-31G**

Conformer number 169. Energy MM = 0.000 kcal/mol

0 1
H         19.97000       10.36900       18.23100
C         20.01300       11.29400       17.64300
C         21.09900       12.18800       18.12300
H         20.34700       11.08000       16.60300
H         18.97400       11.62600       17.65800
H         22.15600       11.75400       18.10600
H         20.94700       12.47800       19.19700
C         21.21300       13.46300       17.45200
C         19.99600       14.24500       17.57700
H         22.07600       14.07400       17.82100
H         19.89200       14.44500       18.69000
H         19.10300       13.74900       17.23200
O         21.39500       13.24400       16.04700
H         22.21800       12.82100       16.10300
C         20.08700       15.59300       16.90200
H         19.20300       16.22500       17.03500
H         20.29700       15.46100       15.85900
H         20.82200       16.14900       17.35100
H         23.03800       13.46800       12.92900
C         23.72900       13.34800       13.82200
C         23.69800       11.92400       14.38900
H         24.77900       13.71100       13.57000
H         23.25400       14.13500       14.55700
H         24.04100       11.25300       13.59600
H         22.60900       11.70000       14.63200
C         24.57300       11.69600       15.55300
C         24.68100       10.29400       15.92400
H         25.63300       12.09600       15.28800
H         25.03900        9.61000       15.10700
H         23.58200        9.95400       15.87900
O         24.08000       12.50600       16.65700
H         24.77900       12.86300       17.23600
C         25.43400        9.97500       17.28200
H         25.49900        8.94500       17.61000
H         25.07000       10.50200       18.15500
H         26.50200       10.34900       17.15000


