%chk=IsoP_020_gaussian.chk
%nproc=4
%mem=4000Mb
#p 6-31g* mp2

Conformer number 020. Energy MM = 23.242 kcal/mol

0 1
C  -0.8231    0.8755    0.2097
H  -0.7359    0.4285    1.2073
H  -0.7567    1.9586    0.3799
C  -2.1709    0.5537    -0.4023
C  -2.6899    1.5782    -1.3784
H  -3.6696    1.3050    -1.7847
H  -2.7951    2.5511    -0.8875
H  -2.0012    1.6861    -2.2223
C  -2.8984    -0.5419    -0.1076
H  -3.8684    -0.6684    -0.5876
C  -2.5258    -1.6622    0.8114
H  -2.6404    -2.6166    0.2875
H  -3.1921    -1.6680    1.6792
H  -1.4946    -1.6091    1.1676
C  2.2620    -1.5451    0.8354
H  1.2536    -1.8643    0.5628
H  2.9738    -2.1553    0.2702
H  2.3871    -1.7679    1.9006
C  2.5165    -0.0850    0.5806
C  3.8326    0.4171    1.1147
H  3.9877    1.4809    0.9062
H  3.8786    0.2811    2.2002
H  4.6611    -0.1348    0.6588
C  1.6694    0.7491    -0.0537
H  1.9554    1.7953    -0.1628
C  0.3395    0.4113    -0.6734
H  0.2544    -0.6600    -0.8830
H  0.2906    0.9069    -1.6513
