%chk=PET2_024_gaussian.chk
%nproc=4
%mem=4000Mb
#p 6-31g* mp2

Conformer number 024. Energy MM = 72.202 kcal/mol

0 1
C  -0.0510    -2.4759    -0.4751
C  2.7076    -0.2444    0.8136
H  3.0721    0.0800    1.7856
C  1.6148    -1.1168    0.7600
H  1.1513    -1.4503    1.6872
C  1.1190    -1.5583    -0.4743
C  1.7184    -1.1084    -1.6575
H  1.3367    -1.4155    -2.6289
C  2.8107    -0.2356    -1.6039
H  3.2639    0.1079    -2.5328
C  3.3130    0.2003    -0.3697
O  5.0261    1.5183    -1.3910
C  4.4771    1.1286    -0.3727
O  4.8237    1.4643    0.8946
O  -0.2249    -3.0226    -1.7028
O  -0.7367    -2.6865    0.5128
C  5.9392    2.3595    0.9805
H  6.8217    1.8953    0.5262
H  5.7039    3.2947    0.4600
C  6.2062    2.6421    2.4459
H  5.3248    3.0870    2.9195
H  6.4221    1.7134    2.9844
H  7.0529    3.3241    2.5639
C  -4.9843    2.2625    2.6779
C  -3.9268    -0.7188    0.6266
H  -3.9880    -1.8018    0.7100
C  -4.4742    0.0714    1.6429
H  -4.9615    -0.4086    2.4901
C  -4.3889    1.4680    1.5759
C  -3.7483    2.0708    0.4863
H  -3.6672    3.1533    0.4178
C  -3.2002    1.2806    -0.5295
H  -2.7002    1.7605    -1.3693
C  -3.2925    -0.1169    -0.4682
O  -1.9135    -0.4376    -2.3883
C  -2.6836    -0.9110    -1.5679
O  -3.1087    -2.1968    -1.5162
O  -4.8338    3.5875    2.5059
O  -5.5576    1.8122    3.6522
C  -2.5359    -3.0978    -2.4802
H  -2.2244    -2.5687    -3.3879
H  -3.3301    -3.7966    -2.7624
C  -1.3727    -3.8744    -1.8657
H  -1.6635    -4.3406    -0.9176
H  -1.0704    -4.6756    -2.5478
H  -5.2666    3.9774    3.2944
