%chk=IsoP_014_gaussian.chk
%nproc=4
%mem=4000Mb
#p 6-31g* mp2

Conformer number 014. Energy MM = 23.242 kcal/mol

0 1
C  -0.6753    0.6423    -0.6196
H  -0.3531    -0.2625    -1.1488
H  -0.4525    1.4667    -1.3102
C  -2.1673    0.6049    -0.3605
C  -2.8358    1.9535    -0.2823
H  -2.4096    2.5453    0.5339
H  -2.6961    2.5013    -1.2200
H  -3.9133    1.8727    -0.1039
C  -2.8885    -0.5259    -0.2275
H  -3.9628    -0.4431    -0.0654
C  -2.3857    -1.9347    -0.2526
H  -2.7423    -2.4647    0.6366
H  -2.7733    -2.4519    -1.1355
H  -1.2960    -2.0085    -0.2593
C  2.1951    -1.5124    1.0795
H  1.1237    -1.7056    1.1679
H  2.6494    -1.6725    2.0627
H  2.5958    -2.2621    0.3887
C  2.5144    -0.1296    0.5817
C  3.9724    0.0989    0.2794
H  4.1696    1.1164    -0.0740
H  4.5751    -0.0626    1.1792
H  4.3124    -0.5943    -0.4970
C  1.6115    0.8525    0.3925
H  1.9600    1.8112    0.0081
C  0.1327    0.8071    0.6716
H  -0.1425    1.7449    1.1706
H  -0.1180    0.0124    1.3818

