%chk=MD_extract_018_gaussian.chk
%nproc=1
%mem=1000Mb
#p opt pm3

Conformer number 018. Energy MM = 0.000 kcal/mol

0 1
C         10.97200        9.22000        9.40000
H         10.92200        8.31700        8.83500
H         10.46100        9.14800       10.33200
H         12.00400        9.48700        9.60900
C         10.33300       10.37500        8.62800
H         10.99900       10.57700        7.73800
H         10.23700       11.26500        9.30300
C          8.96000       10.22700        8.10700
H          8.37100       10.02900        9.01800
O          8.45300       11.39800        7.60400
C          8.87900        9.05800        7.21700
H          8.66400       11.42100        6.63300
H          9.65400        9.21300        6.48600
H          9.10800        8.13100        7.78100
C          7.67200        8.93800        6.41900
H          6.77900        8.68000        6.99200
H          7.70600        8.11100        5.75600
H          7.53600        9.88000        5.83900

