%chk=MD_extract_015_gaussian.chk
%nproc=1
%mem=1000Mb
#p opt pm3

Conformer number 015. Energy MM = 0.000 kcal/mol

0 1
C          1.08800        7.81000        9.66700
H          1.31500        7.54700        8.57900
H          0.38900        7.03100       10.09400
H          2.02100        7.66300       10.18200
C          0.54100        9.22800        9.72800
H          0.16700        9.44300       10.75300
H         -0.31400        9.37800        9.13200
C          1.50800       10.26800        9.43700
H          2.39100       10.20900       10.08700
O          1.98000        9.95500        8.13800
C          0.93000       11.57300        9.45000
H          1.35600        9.32400        7.81700
H          0.04700       11.60000        8.81500
H          0.67500       11.80700       10.53000
C          1.84000       12.66400        8.95900
H          2.74200       12.74900        9.60100
H          1.26300       13.61800        9.01800
H          2.09600       12.53700        7.91300

