%chk=MD_extract_020_gaussian.chk
%nproc=1
%mem=1000Mb
#p opt pm3

Conformer number 020. Energy MM = 0.000 kcal/mol

0 1
C          9.06300        8.71400        3.38900
H          9.78600        8.60900        2.57300
H          9.14800        7.74100        3.95300
H          9.32700        9.42000        4.17700
C          7.69600        9.17200        2.87500
H          6.92700        8.90800        3.65600
H          7.39300        8.58600        2.02500
C          7.74700       10.58700        2.59800
H          6.73600       10.97600        2.31900
O          8.25900       11.30600        3.68700
C          8.64500       10.98700        1.46600
H          7.60800       11.55400        4.38400
H          9.68300       10.75600        1.75000
H          8.46400       10.45200        0.52900
C          8.39000       12.53700        1.15900
H          7.35600       12.66400        0.93400
H          8.98800       12.83100        0.23500
H          8.63500       13.21700        1.92500

