%chk=MD_extract_016_gaussian.chk
%nproc=1
%mem=1000Mb
#p opt pm3

Conformer number 016. Energy MM = 0.000 kcal/mol

0 1
C          1.36100        1.06000        7.80600
H          0.84700        1.07900        8.72200
H          1.08600        0.11700        7.27300
H          1.06400        1.93100        7.18200
C          2.87800        1.00500        8.05900
H          3.08200        0.15300        8.71500
H          3.10200        1.95600        8.63000
C          3.58700        0.86000        6.76000
H          3.58600       -0.12600        6.42500
O          2.81300        1.51500        5.76900
C          5.03500        1.22400        6.89200
H          3.00700        1.17200        4.89500
H          5.13500        2.16000        7.49300
H          5.61900        0.43600        7.53000
C          5.86000        1.55200        5.61200
H          5.41000        2.32500        4.95900
H          5.92700        0.59600        5.01400
H          6.84600        1.76300        5.87500

