%chk=MD_extract_001_gaussian.chk
%nproc=1
%mem=1000Mb
#p opt pm3

Conformer number 001. Energy MM = 0.000 kcal/mol

0 1
C          1.06000        8.28500       13.50700
H          1.99300        8.63500       13.06000
H          1.22200        8.17200       14.64300
H          0.48800        9.19600       13.26200
C          0.50300        6.90500       13.16400
H          0.31300        6.79400       12.05700
H         -0.44100        6.79500       13.67900
C          1.40700        5.85100       13.57300
H          1.27200        4.87100       12.97300
O          2.71500        6.23400       13.29700
C          1.40400        5.51100       14.96800
H          2.60300        6.95000       12.70000
H          1.91300        6.29200       15.59700
H          0.34900        5.39000       15.28100
C          2.30300        4.24900       15.17000
H          1.63400        3.47300       15.56400
H          2.99800        4.42000       15.96700
H          2.73600        3.80100       14.27300

