%chk=MD_extract_009_gaussian.chk
%nproc=1
%mem=1000Mb
#p opt pm3

Conformer number 009. Energy MM = 0.000 kcal/mol

0 1
C         12.19700       -1.74900        9.17900
H         13.05700       -2.25700        8.66200
H         11.44900       -1.93100        8.49000
H         11.94400       -2.32200       10.05400
C         12.62100       -0.28700        9.53000
H         13.12400        0.27000        8.66000
H         13.33900       -0.30800       10.43300
C         11.42600        0.44600       10.03100
H         10.74300        0.73400        9.25000
O         10.65900       -0.27500       10.97200
C         11.76400        1.68900       10.70900
H          9.91300       -0.48400       10.43800
H         11.90700        1.35300       11.75600
H         12.71500        2.14100       10.35400
C         10.66000        2.75000       10.67400
H         10.46100        2.87900        9.61300
H         10.86000        3.67400       11.23100
H          9.69600        2.28900       11.06600

