%chk=MD_extract_006_gaussian.chk
%nproc=1
%mem=1000Mb
#p opt pm3

Conformer number 006. Energy MM = 0.000 kcal/mol

0 1
C          2.93500        9.19700        1.96000
H          3.09500       10.20100        2.33900
H          1.85200        9.03000        1.94900
H          3.38900        9.10400        0.94500
C          3.60800        8.32200        3.01600
H          4.72200        8.36800        2.92000
H          3.37800        7.22900        2.84500
C          3.19700        8.67800        4.41300
H          3.16800        9.77200        4.54400
O          1.86800        8.22900        4.57900
C          4.21800        8.22600        5.30500
H          1.61100        8.54500        5.43800
H          4.52200        7.20800        4.93400
H          5.11200        8.86900        5.10400
C          4.12000        8.16300        6.85400
H          4.23300        9.14800        7.31400
H          4.97100        7.59600        7.19400
H          3.21200        7.62200        7.27200

