%chk=MD_extract_022_gaussian.chk
%nproc=1
%mem=1000Mb
#p opt pm3

Conformer number 022. Energy MM = 0.000 kcal/mol

0 1
C          3.10600        2.33600       11.69600
H          4.11500        2.65600       11.35600
H          2.85300        3.11500       12.39900
H          2.49400        2.36900       10.75900
C          2.81100        0.86700       12.19200
H          3.46200        0.52500       13.08100
H          2.96100        0.16500       11.29700
C          1.47300        0.69200       12.71200
H          0.78400        1.03500       11.88200
O          1.27000       -0.72900       13.01900
C          1.26900        1.53700       13.89700
H          0.32700       -0.91700       12.78000
H          2.02000        1.38700       14.69000
H          1.32400        2.60300       13.58300
C         -0.16100        1.38600       14.44500
H         -0.26300        0.28300       14.78800
H         -0.88700        1.54800       13.62700
H         -0.30400        1.93100       15.32900

