%chk=MD_extract_000_gaussian.chk
%nproc=1
%mem=1000Mb
#p opt pm3

Conformer number 000. Energy MM = 0.000 kcal/mol

0 1
C         13.22000       10.57900       11.88100
H         13.03100        9.51200       11.76800
H         14.06100       10.65400       12.65900
H         13.50100       10.95000       10.84500
C         12.08600       11.37200       12.55200
H         11.62600       10.76500       13.35600
H         11.31700       11.66000       11.82600
C         12.52300       12.58600       13.25100
H         13.31100       12.32500       14.03400
O         13.18300       13.52200       12.39600
C         11.45100       13.13500       14.04900
H         12.44900       13.97900       11.97500
H         10.66700       13.53700       13.43500
H         11.13100       12.31200       14.60300
C         11.76500       14.18800       15.13900
H         12.55300       13.73000       15.82200
H         10.89100       14.46300       15.69600
H         12.26400       15.09200       14.68300

