%chk=MD_extract_008_gaussian.chk
%nproc=1
%mem=1000Mb
#p opt pm3

Conformer number 008. Energy MM = 0.000 kcal/mol

0 1
C         11.22800        4.00900        4.32900
H         11.52100        4.68600        5.08100
H         12.14000        3.72300        3.74700
H         10.83800        3.14400        4.79800
C         10.10200        4.63900        3.53000
H          9.75700        4.01100        2.69200
H         10.42700        5.58400        3.08500
C          8.81700        4.93700        4.19900
H          8.45400        3.96300        4.69900
O          9.08900        5.72000        5.31400
C          7.88400        5.54000        3.26500
H          9.83700        6.19800        4.99600
H          8.35000        6.45700        2.86100
H          7.71500        4.86300        2.43400
C          6.52300        5.83100        4.03000
H          5.67900        6.00000        3.37100
H          6.54000        6.63800        4.78200
H          6.27800        4.89700        4.62500

