%chk=MD_extract_023_gaussian.chk
%nproc=1
%mem=1000Mb
#p opt pm3

Conformer number 023. Energy MM = 0.000 kcal/mol

0 1
C          4.06900        4.81500        6.30500
H          4.47000        5.72500        6.79800
H          4.83400        4.23600        5.80100
H          3.57900        4.19000        7.11300
C          3.01100        5.26100        5.36700
H          3.32800        5.71800        4.38400
H          2.46400        6.10800        5.89300
C          1.95300        4.32600        4.93900
H          2.45200        3.45100        4.42100
O          1.17800        3.82200        5.99100
C          1.01700        4.87800        3.93600
H          1.68300        2.96900        6.06700
H          0.20100        5.36600        4.43300
H          1.46400        5.62900        3.33500
C          0.29100        3.80900        3.12000
H         -0.28300        4.22600        2.33000
H         -0.46800        3.34500        3.74900
H          0.91100        3.05400        2.65300

