%chk=PET2_036_gaussian.chk
%nproc=4
%mem=4000Mb
#p 6-31g* mp2

Conformer number 036. Energy MM = 71.792 kcal/mol

0 1
C  0.6785    0.5010    -2.9332
C  3.9529    -0.8119    -1.5902
H  4.7959    -1.3894    -1.9673
C  2.8849    -0.5207    -2.4452
H  2.9136    -0.8762    -3.4743
C  1.7897    0.2210    -1.9830
C  1.7751    0.6685    -0.6546
H  0.9384    1.2468    -0.2686
C  2.8446    0.3770    0.2013
H  2.8077    0.7376    1.2269
C  3.9398    -0.3653    -0.2618
O  6.0629    -1.3492    0.2180
C  5.1025    -0.7033    0.6051
O  4.9317    -0.1937    1.8501
O  -0.2979    1.2186    -2.3269
O  0.6677    0.1185    -4.0921
C  5.9923    -0.4547    2.7816
H  6.4061    -1.4603    2.6437
H  5.5524    -0.4227    3.7838
C  7.0667    0.6097    2.6619
H  7.5227    0.5976    1.6669
H  6.6372    1.6069    2.8033
H  7.8515    0.4542    3.4076
C  -5.6264    -1.0834    3.7448
C  -5.3280    0.8797    0.5415
H  -5.8086    1.7439    0.0850
C  -5.7504    0.4477    1.8028
H  -6.5530    0.9803    2.3108
C  -5.1457    -0.6616    2.4064
C  -4.1153    -1.3360    1.7392
H  -3.6343    -2.2005    2.1917
C  -3.6923    -0.9035    0.4768
H  -2.8906    -1.4450    -0.0205
C  -4.2968    0.2072    -0.1291
O  -4.3933    1.6762    -2.0132
C  -3.8842    0.7103    -1.4680
O  -2.8763    -0.0428    -1.9707
O  -4.9713    -2.1574    4.2190
O  -6.5125    -0.5485    4.3844
C  -2.3885    0.3563    -3.2667
H  -3.2262    0.5855    -3.9354
H  -1.8737    -0.5171    -3.6783
C  -1.4334    1.5447    -3.1521
H  -1.1019    1.8822    -4.1409
H  -1.9259    2.3931    -2.6674
H  -5.3884    -2.3207    5.0913

