%chk=PET2_008_gaussian.chk
%nproc=4
%mem=4000Mb
#p 6-31g* mp2

Conformer number 008. Energy MM = 73.502 kcal/mol

0 1
C  1.0346    0.5467    -0.4919
C  4.7122    1.1736    0.0974
H  5.3373    2.0304    0.3388
C  3.3328    1.3639    -0.0437
H  2.9161    2.3614    0.0909
C  2.4934    0.2847    -0.3542
C  3.0492    -0.9902    -0.5229
H  2.4251    -1.8475    -0.7645
C  4.4287    -1.1803    -0.3820
H  4.8461    -2.1775    -0.5163
C  5.2684    -0.1013    -0.0711
O  7.2281    -1.4658    -0.0893
C  6.7279    -0.3633    0.0656
O  7.3899    0.7786    0.3751
O  0.3648    -0.5990    -0.7703
O  0.5331    1.6514    -0.3609
C  8.8106    0.6521    0.5370
H  9.1289    1.4579    1.2065
H  9.0739    -0.2939    1.0239
C  9.5044    0.7989    -0.8041
H  10.5909    0.7631    -0.6847
H  9.2020    0.0032    -1.4921
H  9.2317    1.7486    -1.2760
C  -9.6056    -0.0687    0.2866
C  -5.8514    -0.1518    -0.3080
H  -5.1628    -0.0682    -1.1456
C  -7.2263    -0.0599    -0.5552
H  -7.5723    0.0908    -1.5755
C  -8.1407    -0.1599    0.5010
C  -7.6711    -0.3517    1.8060
H  -8.3714    -0.4300    2.6363
C  -6.2976    -0.4432    2.0530
H  -5.9478    -0.5913    3.0738
C  -5.3794    -0.3449    0.9981
O  -3.4969    -0.5859    2.4508
C  -3.9290    -0.4491    1.3176
O  -3.1829    -0.3778    0.1875
O  -9.9326    0.1161    -1.0043
O  -10.4584    -0.1469    1.1509
C  -1.7689    -0.4496    0.4149
H  -1.4487    0.4095    1.0153
H  -1.5185    -1.3651    0.9648
C  -1.0540    -0.4556    -0.9317
H  -1.4012    -1.3076    -1.5275
H  -1.3004    0.4367    -1.5210
H  -10.9122    0.1583    -0.9944

