%chk=05-PET_1741_gaussian.chk
%nproc=4
%mem=4000Mb
#p opt=loose m062x/6-31g(d,p)

Conformer number 1741. Energy MM = 71.816 kcal/mol

0 1
C  0.8161    -3.2675    -0.5611
C  2.6347    -0.0969    0.5148
H  2.4542    0.7619    1.1572
C  1.6435    -1.0802    0.4102
H  0.7173    -0.9545    0.9660
C  1.8400    -2.1983    -0.4117
C  3.0353    -2.3194    -1.1326
H  3.1998    -3.1775    -1.7823
C  4.0262    -1.3379    -1.0272
H  4.9488    -1.4483    -1.5951
C  3.8324    -0.2212    -0.2028
O  5.9743    0.6989    -0.7333
C  4.9184    0.7946    -0.1282
O  4.5639    1.8135    0.6937
O  -0.1878    -3.0992    0.3367
O  0.8981    -4.1751    -1.3740
C  5.5568    2.8391    0.8185
H  6.4793    2.4128    1.2283
H  5.7579    3.2809    -0.1639
C  5.0222    3.9020    1.7584
H  4.0877    4.3228    1.3726
H  4.7960    3.4707    2.7392
H  5.7475    4.7103    1.8865
C  -5.5749    3.2457    0.8541
C  -4.4700    -0.3467    0.2802
H  -4.8212    -1.3487    0.5156
C  -5.2280    0.7500    0.7077
H  -6.1467    0.5748    1.2634
C  -4.8052    2.0541    0.4206
C  -3.6199    2.2542    -0.2972
H  -3.2809    3.2629    -0.5282
C  -2.8629    1.1587    -0.7244
H  -1.9440    1.3310    -1.2833
C  -3.2824    -0.1483    -0.4383
O  -1.4035    -1.1158    -1.5444
C  -2.4354    -1.2768    -0.9133
O  -2.9700    -2.4640    -0.5362
O  -6.6947    2.9264    1.5259
O  -5.2678    4.4050    0.6490
C  -2.2277    -3.6441    -0.9057
H  -2.9660    -4.4399    -1.0475
H  -1.7135    -3.4983    -1.8617
C  -1.2713    -4.0365    0.2202
H  -1.7984    -4.0187    1.1800
H  -0.8839    -5.0516    0.0758
H  -7.0943    3.7951    1.7432

