%chk=05-PET_214_gaussian.chk
%nproc=4
%mem=4000Mb
#p opt=loose m062x/6-31g(d,p)

Conformer number 214. Energy MM = 73.475 kcal/mol

0 1
C  1.2312    -0.6146    0.9652
C  4.2290    1.0211    -0.7243
H  4.4342    1.7093    -1.5435
C  2.9040    0.6740    -0.4365
H  2.1081    1.1024    -1.0414
C  2.6198    -0.2095    0.6132
C  3.6750    -0.7397    1.3690
H  3.4706    -1.4278    2.1882
C  4.9998    -0.3924    1.0810
H  5.7969    -0.8201    1.6851
C  5.2843    0.4911    0.0314
O  6.9402    1.6638    -1.2307
C  6.6733    0.8958    -0.3201
O  7.5686    0.2971    0.5034
O  0.3336    -0.0168    0.1434
O  0.9633    -1.3826    1.8753
C  8.9343    0.6352    0.2310
H  9.0773    1.7157    0.3434
H  9.1939    0.3318    -0.7894
C  9.8106    -0.1035    1.2236
H  9.6626    -1.1851    1.1381
H  10.8671    0.1231    1.0556
H  9.5482    0.1734    2.2501
C  -9.6600    -0.8242    0.1062
C  -6.6404    0.7512    -1.5074
H  -6.4391    1.4398    -2.3269
C  -7.9628    0.4016    -1.2159
H  -8.7721    0.8217    -1.8112
C  -8.2427    -0.4820    -0.1664
C  -7.1901    -1.0134    0.5894
H  -7.3880    -1.7014    1.4087
C  -5.8663    -0.6634    0.2977
H  -5.0680    -1.0905    0.9004
C  -5.5843    0.2213    -0.7529
O  -3.9286    1.3953    -2.0162
C  -4.1961    0.6273    -1.1063
O  -3.2978    0.0295    -0.2850
O  -9.8011    -1.6787    1.1344
O  -10.6245    -0.4039    -0.5051
C  -1.9344    0.3716    -0.5630
H  -1.6748    0.0822    -1.5887
H  -1.7899    1.4545    -0.4643
C  -1.0300    -0.3583    0.4205
H  -1.1747    -1.4411    0.3218
H  -1.2899    -0.0690    1.4462
H  -10.7704    -1.8120    1.1981

