%chk=05-PET_361_gaussian.chk
%nproc=4
%mem=4000Mb
#p opt=loose m062x/6-31g(d,p)

Conformer number 361. Energy MM = 72.118 kcal/mol

0 1
C  1.0263    0.2935    0.7952
C  4.3784    -1.1854    -0.2493
H  4.7641    -2.0836    -0.7302
C  2.9990    -1.0514    -0.0543
H  2.3429    -1.8518    -0.3893
C  2.4833    0.0962    0.5625
C  3.3626    1.1049    0.9806
H  2.9776    2.0029    1.4620
C  4.7420    0.9707    0.7855
H  5.3991    1.7700    1.1208
C  5.2579    -0.1768    0.1686
O  7.1830    -1.3658    -0.6001
C  6.7152    -0.3736    -0.0647
O  7.4208    0.6886    0.3960
O  0.3193    -0.7654    0.3312
O  0.5570    1.2869    1.3266
C  8.8372    0.5780    0.2094
H  9.2126    -0.3035    0.7412
H  9.0637    0.4896    -0.8591
C  9.4864    1.8287    0.7688
H  9.1049    2.7209    0.2613
H  9.2511    1.9424    1.8322
H  10.5728    1.7915    0.6493
C  -9.5914    -0.2356    0.0189
C  -6.2391    -1.6340    -0.9864
H  -5.8595    -2.5355    -1.4654
C  -7.6160    -1.4930    -0.7862
H  -8.2889    -2.2850    -1.1110
C  -8.1243    -0.3415    -0.1728
C  -7.2452    0.6682    0.2388
H  -7.6212    1.5702    0.7170
C  -5.8668    0.5271    0.0384
H  -5.2060    1.3263    0.3670
C  -5.3562    -0.6255    -0.5755
O  -3.4342    -1.8229    -1.3417
C  -3.9003    -0.8272    -0.8120
O  -3.1896    0.2316    -0.3530
O  -9.9574    0.9119    0.6160
O  -10.4145    -1.0688    -0.3108
C  -1.7691    0.1554    -0.5520
H  -1.3864    1.1809    -0.5203
H  -1.5299    -0.2178    -1.5558
C  -1.1018    -0.6938    0.5273
H  -1.4816    -1.7203    0.4931
H  -1.3442    -0.3229    1.5313
H  -10.9337    0.8449    0.6760

