%chk=IsoP_048_gaussian.chk
%nproc=4
%mem=4000Mb
#p 6-31g* mp2

Conformer number 048. Energy MM = 23.692 kcal/mol

0 1
C  -1.3623    0.3754    1.4718
H  -1.7419    -0.6260    1.7040
H  -1.9354    1.0467    2.1254
C  -1.6554    0.7566    0.0332
C  -1.6868    2.2397    -0.2392
H  -2.4414    2.7247    0.3887
H  -0.7137    2.6921    -0.0260
H  -1.9323    2.4650    -1.2825
C  -1.9056    -0.1197    -0.9601
H  -2.1209    0.2708    -1.9543
C  -1.9044    -1.6137    -0.8909
H  -1.2080    -2.0128    -1.6354
H  -2.9040    -1.9946    -1.1218
H  -1.6066    -2.0095    0.0818
C  2.6532    -1.7216    -0.1911
H  3.7283    -1.5868    -0.0334
H  2.4747    -1.8812    -1.2596
H  2.3521    -2.6333    0.3354
C  1.9002    -0.5079    0.2880
C  2.2814    0.7679    -0.4099
H  1.6849    1.6292    -0.1039
H  3.3319    1.0049    -0.2115
H  2.1520    0.6565    -1.4918
C  0.9626    -0.6194    1.2492
H  0.7658    -1.6079    1.6642
C  0.1213    0.4711    1.8590
H  0.5125    1.4684    1.6393
H  0.1978    0.3651    2.9490
