%chk=06-PVA_005_gaussian.chk
%nproc=1
%mem=4000Mb
#p opt mp2/6-31g(d,p)

Conformer number 005. Energy MM = 2.137 kcal/mol

0 1
C         -2.28520        1.10380        2.47920
H         -2.05190        1.64150        3.40170
H         -1.92400        0.07550        2.57290
H         -3.37460        1.06820        2.38970
C         -1.68730        1.78920        1.25770
H         -1.98610        1.21290        0.37290
H         -2.12640        2.78630        1.14680
C         -0.15590        1.88520        1.28300
H          0.17650        2.35830        0.35150
C          0.42650        2.65280        2.47710
H          1.52160        2.64030        2.40560
H          0.19680        2.13320        3.41330
C         -0.04470        4.09670        2.55630
H         -1.12770        4.16530        2.68640
H          0.42080        4.59510        3.41270
H          0.23550        4.64780        1.65450
O          0.37030        0.55610        1.28860
H          1.34100        0.62600        1.25420

