%chk=06-PVA_003_gaussian.chk
%nproc=1
%mem=4000Mb
#p opt mp2/6-31g(d,p)

Conformer number 003. Energy MM = 1.793 kcal/mol

0 1
C         -2.19150        1.14840       -0.07630
H         -1.88260        0.09930       -0.12010
H         -1.81330        1.65900       -0.96630
H         -3.28560        1.17570       -0.10620
C         -1.68830        1.81830        1.19590
H         -2.07840        2.84230        1.24080
H         -2.10770        1.26610        2.04390
C         -0.15800        1.84570        1.27980
H          0.23770        2.35630        0.39440
C          0.35880        2.56450        2.53400
H          0.02260        3.60690        2.52800
H          1.45540        2.57860        2.50150
C         -0.05440        1.90900        3.84650
H          0.26150        0.86160        3.88750
H          0.40890        2.43250        4.68830
H         -1.13830        1.95020        3.99090
O          0.33760        0.50850        1.25630
H          1.30890        0.55740        1.27750

