%chk=06-PVA_000_gaussian.chk
%nproc=1
%mem=4000Mb
#p opt mp2/6-31g(d,p)

Conformer number 000. Energy MM = 1.411 kcal/mol

0 1
C         -2.20220        1.15800       -0.00820
H         -1.90870        0.10420       -0.04650
H         -1.84850        1.64770       -0.92100
H         -3.29630        1.20120       -0.00220
C         -1.64320        1.84740        1.23040
H         -2.00540        2.88150        1.25650
H         -2.04080        1.33450        2.11470
C         -0.11100        1.82880        1.26450
H          0.27980        2.28930        0.34890
C          0.41590        2.57300        2.49640
H          0.07240        2.07060        3.40880
H          0.01670        3.59380        2.51100
C          1.93720        2.64290        2.53890
H          2.33220        3.12800        1.64050
H          2.26270        3.22330        3.40900
H          2.38290        1.64700        2.61930
O          0.32190        0.47110        1.29760
H          1.27800        0.46020        1.12320

