%chk=07-EVA_021_gaussian.chk
%nproc=1
%mem=4000Mb
#p opt mp2/6-31g(d,p)

Conformer number 021. Energy MM = -3.295 kcal/mol

0 1
C         -1.89800        0.88000        0.15470
H         -1.35240       -0.06630        0.09920
H         -1.68870        1.45620       -0.75280
H         -2.96950        0.65240        0.16620
C         -1.51870        1.66820        1.40200
H         -2.18160        2.53770        1.46930
H         -1.72360        1.04480        2.27800
C         -0.05450        2.13340        1.38320
H          0.10080        2.69820        0.45590
C          0.32310        3.05960        2.55320
H          1.41600        3.13040        2.61690
H         -0.00990        2.63050        3.50460
C         -0.24840        4.46140        2.42080
H         -1.33940        4.45680        2.45730
H          0.11360        5.08830        3.24350
H          0.06820        4.92490        1.48110
O          0.89710        1.04420        1.29420
C          1.07450        0.22190        2.36240
O          0.34450        0.13980        3.33730
C          2.36550       -0.53110        2.22880
H          2.17120       -1.60460        2.24540
H          2.87170       -0.27840        1.29280
H          3.02370       -0.24660        3.05550

