%chk=07-EVA_009_gaussian.chk
%nproc=1
%mem=4000Mb
#p opt mp2/6-31g(d,p)

Conformer number 009. Energy MM = -6.900 kcal/mol

0 1
C         -2.20420        1.08470        2.50890
H         -2.05910        1.69110        3.40680
H         -1.79740        0.08610        2.69300
H         -3.28290        0.98330        2.35350
C         -1.56320        1.72530        1.28470
H         -1.77330        1.07730        0.42450
H         -2.05430        2.68420        1.08270
C         -0.04060        1.92600        1.38280
H          0.28220        2.39130        0.44250
C          0.40910        2.79450        2.56970
H          1.50560        2.84260        2.59040
H          0.13310        2.32050        3.51760
C         -0.12730        4.21530        2.52100
H         -1.21660        4.23900        2.61650
H          0.29000        4.80130        3.34650
H          0.15070        4.70690        1.58350
O          0.57100        0.62310        1.50300
C          1.86140        0.52930        1.07900
O          2.52450        1.43830        0.59580
C          2.38510       -0.85380        1.31620
H          2.47440       -1.03490        2.38970
H          1.72160       -1.58900        0.85360
H          3.37440       -0.94810        0.85780

