%chk=07-EVA_007_gaussian.chk
%nproc=1
%mem=4000Mb
#p opt mp2/6-31g(d,p)

Conformer number 007. Energy MM = -3.003 kcal/mol

0 1
C         -2.05780        0.99500        0.05070
H         -1.68010       -0.02880        0.12250
H         -1.68730        1.43880       -0.87840
H         -3.14970        0.94820       -0.01420
C         -1.64590        1.83380        1.25440
H         -2.08300        2.82870        1.12570
H         -2.09090        1.38630        2.15160
C         -0.12140        1.92930        1.42580
H          0.33540        2.24020        0.47650
C          0.27520        2.88560        2.56870
H          1.36860        2.90060        2.65880
H         -0.08260        2.47820        3.52330
C         -0.19620        4.31680        2.41650
H         -1.28280        4.39300        2.50600
H          0.24060        4.93050        3.21100
H          0.11340        4.73400        1.45440
O          0.36180        0.62440        1.81440
C          1.71260        0.45700        1.75010
O          2.47930        1.09900        1.04180
C          2.14430       -0.48420        2.83100
H          2.11560        0.04980        3.78580
H          1.48260       -1.35540        2.87240
H          3.16380       -0.82800        2.64140

