%chk=07-EVA_017_gaussian.chk
%nproc=1
%mem=4000Mb
#p opt mp2/6-31g(d,p)

Conformer number 017. Energy MM = -6.229 kcal/mol

0 1
C         -2.04550        0.98210        0.00290
H         -1.66000       -0.04170        0.00430
H         -1.71430        1.48000       -0.91350
H         -3.13930        0.92700       -0.01910
C         -1.59390        1.75020        1.23740
H         -2.11030        2.71520        1.24270
H         -1.92690        1.19460        2.12270
C         -0.06900        1.96540        1.30490
H          0.24290        2.53230        0.41560
C          0.31400        2.72820        2.58570
H          1.40000        2.71750        2.72660
H         -0.09520        2.21430        3.46400
C         -0.14990        4.17780        2.57070
H         -1.23970        4.25410        2.61950
H          0.25660        4.71320        3.43480
H          0.19240        4.68920        1.66520
O          0.56640        0.66920        1.26680
C          1.89260        0.66310        0.95400
O          2.61530        1.64260        0.85990
C          2.35660       -0.74280        0.68490
H          2.36790       -1.32390        1.60770
H          1.70510       -1.20800       -0.05820
H          3.36810       -0.70990        0.27050

