%chk=07-EVA_018_gaussian.chk
%nproc=1
%mem=4000Mb
#p opt mp2/6-31g(d,p)

Conformer number 018. Energy MM = -6.946 kcal/mol

0 1
C         -2.30390        1.09720        2.59730
H         -1.98770        1.52210        3.55460
H         -1.95960        0.06050        2.54540
H         -3.39930        1.08770        2.58970
C         -1.78370        1.91920        1.42450
H         -2.25160        1.52510        0.51480
H         -2.12710        2.95520        1.53160
C         -0.25510        1.89970        1.25910
H          0.01240        2.48490        0.36750
C          0.46330        2.52540        2.46430
H          0.25950        1.94720        3.37340
H          0.09190        3.54380        2.62740
C          1.97580        2.56970        2.28400
H          2.24900        3.10490        1.36960
H          2.44000        3.08410        3.13140
H          2.39880        1.56120        2.23420
O          0.22990        0.55040        1.10440
C          0.10500        0.00310       -0.13420
O         -0.44330        0.52660       -1.09380
C          0.78130       -1.33370       -0.19130
H          1.66060       -1.26100       -0.83510
H          1.10150       -1.65300        0.80480
H          0.08210       -2.07800       -0.58050

