%chk=07-EVA_001_gaussian.chk
%nproc=1
%mem=4000Mb
#p opt mp2/6-31g(d,p)

Conformer number 001. Energy MM = -6.803 kcal/mol

0 1
C         -2.02690        1.00070       -0.01710
H         -1.62710       -0.01720       -0.04410
H         -1.66780        1.53850       -0.90020
H         -3.11830        0.93630       -0.08280
C         -1.62480        1.72120        1.26330
H         -2.11470        2.70090        1.28250
H         -2.00940        1.13760        2.10800
C         -0.10380        1.89870        1.38380
H          0.26350        2.36590        0.46000
C          0.26950        2.78770        2.58580
H         -0.20800        3.76820        2.48650
H          1.35210        2.96020        2.57940
C         -0.08760        2.18200        3.93930
H          0.34190        1.18280        4.06110
H          0.30280        2.81120        4.74530
H         -1.17120        2.11000        4.07000
O          0.50010        0.60050        1.55640
C          1.82710        0.52080        1.25710
O          2.49160        1.39300        0.71600
C          2.39520       -0.75850        1.79470
H          2.56580       -0.65160        2.86760
H          1.71310       -1.59150        1.60120
H          3.34360       -0.97250        1.29470

