%chk=02-IsoP_024_gaussian.chk
%nproc=1
%mem=4000Mb
#p opt mp2/6-31g(d,p)

Conformer number 024. Energy MM = 27.980 kcal/mol

0 1
C          2.19940        1.24740       -8.96020
H          1.88600        0.23900       -9.25960
H          2.07200        1.88430       -9.84660
C          3.68120        1.19750       -8.60230
C          4.60350        1.42660       -9.76950
H          5.56100        0.91120       -9.64830
H          4.16160        1.04400      -10.69580
H          4.78730        2.49780       -9.89560
C          4.11860        1.00960       -7.34020
H          3.39550        0.83410       -6.54610
C          5.52690        1.06770       -6.84180
H          6.25850        1.28790       -7.62110
H          5.60490        1.85570       -6.08480
H          5.79500        0.11740       -6.37260
C          1.08700        5.48320       -6.63160
H          2.14140        5.66590       -6.86660
H          0.49010        6.20370       -7.20120
H          0.94810        5.67900       -5.56330
C          0.66240        4.07730       -6.96550
C         -0.76910        3.74090       -6.67650
H         -0.89200        2.68780       -6.40450
H         -1.14560        4.32810       -5.83110
H         -1.39190        3.95550       -7.55080
C          1.54510        3.19430       -7.46930
H          2.57420        3.52050       -7.61020
C          1.23720        1.77400       -7.87870
H          1.26440        1.12560       -6.99650
H          0.22020        1.71440       -8.28600

