%chk=02-IsoP_002_gaussian.chk
%nproc=1
%mem=4000Mb
#p opt mp2/6-31g(d,p)

Conformer number 002. Energy MM = 25.192 kcal/mol

0 1
C          2.17860        1.19780       -8.96280
H          1.88970        0.18570       -9.27330
H          2.04340        1.82740       -9.85250
C          3.63540        1.21040       -8.55030
C          4.13000       -0.03830       -7.87100
H          4.91850        0.17030       -7.14240
H          3.32060       -0.52900       -7.32000
H          4.51070       -0.74420       -8.61530
C          4.40390        2.28730       -8.80340
H          3.94600        3.14660       -9.29450
C          5.85710        2.46520       -8.49620
H          6.32510        1.57150       -8.07860
H          6.39560        2.72130       -9.41410
H          5.98640        3.28610       -7.78490
C         -2.23690        2.85080       -9.14180
H         -2.71640        1.90260       -8.87700
H         -2.76270        3.65000       -8.60930
H         -2.37010        3.00240      -10.21800
C         -0.77400        2.86740       -8.79170
C         -0.06510        4.16160       -9.08400
H          1.00720        4.02300       -9.24970
H         -0.46280        4.62140       -9.99470
H         -0.20200        4.86390       -8.25550
C         -0.16970        1.78120       -8.27140
H         -0.75360        0.87560       -8.11150
C          1.26790        1.69200       -7.83410
H          1.61110        2.66480       -7.46000
H          1.32460        1.01100       -6.97550

