%chk=02-IsoP_020_gaussian.chk
%nproc=1
%mem=4000Mb
#p opt mp2/6-31g(d,p)

Conformer number 020. Energy MM = 28.610 kcal/mol

0 1
C          2.19720        1.26090       -8.99370
H          1.87470        0.26110       -9.31120
H          2.05300        1.90800       -9.86920
C          3.67580        1.25040       -8.63800
C          4.33770       -0.10130       -8.64760
H          5.11050       -0.18710       -7.87890
H          3.61410       -0.89690       -8.43900
H          4.78400       -0.29600       -9.62750
C          4.30860        2.39340       -8.30770
H          3.74460        3.32560       -8.32620
C          5.73670        2.55900       -7.89640
H          6.31180        1.63160       -7.93580
H          6.22770        3.28390       -8.55290
H          5.77880        2.94250       -6.87220
C          0.60680       -0.12790       -4.47830
H          1.61360       -0.55760       -4.45800
H          0.48150        0.47070       -3.57080
H         -0.10760       -0.95660       -4.45310
C          0.37100        0.72290       -5.69960
C         -0.97780        1.37630       -5.77450
H         -1.31810        1.52310       -6.80220
H         -1.73650        0.75770       -5.28100
H         -0.95170        2.34780       -5.27150
C          1.34420        0.89020       -6.61660
H          2.30330        0.40610       -6.43420
C          1.27640        1.74610       -7.85740
H          0.25680        1.77390       -8.25270
H          1.53990        2.77440       -7.58210

