%chk=02-IsoP_034_gaussian.chk
%nproc=1
%mem=4000Mb
#p opt mp2/6-31g(d,p)

Conformer number 034. Energy MM = 27.665 kcal/mol

0 1
C          2.14030        1.18480       -9.00810
H          1.80820        0.17100       -9.26680
H          1.93880        1.79300       -9.90000
C          3.63440        1.17650       -8.73050
C          4.18470       -0.10330       -8.15980
H          4.93480        0.08350       -7.38240
H          3.40440       -0.70870       -7.69210
H          4.63820       -0.70700       -8.95260
C          4.37940        2.27770       -8.95320
H          3.89160        3.16330       -9.35820
C          5.83680        2.45490       -8.66270
H          6.30790        1.56540       -8.23820
H          6.37130        2.71320       -9.58070
H          5.96740        3.27430       -7.94790
C          2.51550        0.33440       -4.39460
H          1.81000       -0.50260       -4.42260
H          3.52870       -0.08240       -4.40410
H          2.36610        0.86680       -3.45020
C          2.33910        1.26860       -5.56230
C          3.26110        2.46020       -5.54680
H          2.92900        3.26730       -6.20440
H          3.32580        2.88210       -4.54000
H          4.26770        2.15840       -5.85170
C          1.47390        0.98090       -6.55250
H          0.87410        0.07360       -6.47890
C          1.29360        1.73830       -7.84450
H          0.23370        1.68090       -8.12590
H          1.49580        2.80610       -7.71230

