%chk=02-IsoP_012_gaussian.chk
%nproc=1
%mem=4000Mb
#p opt mp2/6-31g(d,p)

Conformer number 012. Energy MM = 26.413 kcal/mol

0 1
C          2.15890        1.18800       -8.87180
H          1.86780        0.15310       -9.08580
H          1.98140        1.74420       -9.80300
C          3.63770        1.21120       -8.51860
C          4.05310        0.34570       -7.36140
H          4.84790        0.80850       -6.77030
H          3.22790        0.16730       -6.66600
H          4.39450       -0.62830       -7.72490
C          4.50140        1.96510       -9.22440
H          4.12320        2.56550      -10.05200
C          5.98000        2.08020       -9.01020
H          6.35150        1.45840       -8.19350
H          6.50920        1.78040       -9.92030
H          6.23980        3.12030       -8.79010
C          1.40960        5.66310       -7.75320
H          2.21530        5.67970       -7.01250
H          1.77990        6.15750       -8.65730
H          0.57490        6.24840       -7.35150
C          0.96000        4.26540       -8.07670
C         -0.10490        4.15910       -9.13290
H         -0.76140        3.29880       -8.97820
H         -0.74920        5.04400       -9.12610
H          0.35590        4.07570      -10.12220
C          1.52610        3.20010       -7.48040
H          2.31180        3.36310       -6.74390
C          1.23600        1.75340       -7.77950
H          1.32850        1.18240       -6.84960
H          0.19430        1.61390       -8.08880

