%chk=02-IsoP_008_gaussian.chk
%nproc=1
%mem=4000Mb
#p opt mp2/6-31g(d,p)

Conformer number 008. Energy MM = 26.045 kcal/mol

0 1
C          2.21170        1.29430       -8.94750
H          1.90360        0.30050       -9.29730
H          2.05710        1.96190       -9.80560
C          3.68540        1.27100       -8.58850
C          4.21310       -0.02210       -8.02560
H          4.94440        0.14880       -7.23010
H          3.41600       -0.62880       -7.58590
H          4.67600       -0.61700       -8.81890
C          4.45250        2.36040       -8.79740
H          3.98660        3.25280       -9.21470
C          5.91530        2.49970       -8.52640
H          6.37410        1.58940       -8.13330
H          6.43730        2.76220       -9.45260
H          6.08130        3.30270       -7.80170
C          0.70980       -1.02110       -5.12050
H          1.51820       -0.64670       -4.48310
H         -0.20880       -1.03260       -4.52640
H          0.96110       -2.05060       -5.39760
C          0.52640       -0.18440       -6.35760
C         -0.56610       -0.64560       -7.28230
H         -0.41360       -0.31170       -8.31250
H         -0.60910       -1.73960       -7.31220
H         -1.53440       -0.27210       -6.93550
C          1.32910        0.86740       -6.60250
H          2.10940        1.11410       -5.88230
C          1.29480        1.76730       -7.80780
H          0.27000        1.86050       -8.18590
H          1.58170        2.77910       -7.49220

