%chk=02-IsoP_000_gaussian.chk
%nproc=1
%mem=4000Mb
#p opt mp2/6-31g(d,p)

Conformer number 000. Energy MM = 24.913 kcal/mol

0 1
C          2.14920        1.26160       -8.94530
H          1.85510        0.25550       -9.27390
H          1.98780        1.91990       -9.80920
C          3.62190        1.29550       -8.57860
C          4.17750        2.65610       -8.24930
H          5.21820        2.76710       -8.56550
H          3.61420        3.44220       -8.76380
H          4.11220        2.83870       -7.17180
C          4.35970        0.16790       -8.56830
H          3.88270       -0.77430       -8.83500
C          5.80220        0.04000       -8.19170
H          6.25380        0.98190       -7.87150
H          5.90230       -0.66930       -7.36420
H          6.37580       -0.34100       -9.04180
C         -2.38760        2.89190       -8.56910
H         -2.73470        1.88010       -8.80360
H         -2.99380        3.26830       -7.73860
H         -2.57080        3.51870       -9.44790
C         -0.92890        2.92380       -8.20060
C         -0.38710        4.28390       -7.86030
H          0.65250        4.40500       -8.17990
H         -0.95750        5.07080       -8.36730
H         -0.45150        4.45750       -6.78190
C         -0.18940        1.79530       -8.18190
H         -0.66250        0.85180       -8.44790
C          1.25540        1.68550       -7.77420
H          1.60980        2.62760       -7.34560
H          1.33010        0.94600       -6.96790

