%chk=02-IsoP_031_gaussian.chk
%nproc=1
%mem=4000Mb
#p opt mp2/6-31g(d,p)

Conformer number 031. Energy MM = 27.788 kcal/mol

0 1
C          2.20810        1.27150       -8.94840
H          1.97260        0.25250       -9.28490
H          2.06000        1.92590       -9.81750
C          3.69090        1.31240       -8.58960
C          4.58590        0.75840       -9.67130
H          5.45950        0.24150       -9.26390
H          4.05460        0.02160      -10.28350
H          4.92170        1.56510      -10.33090
C          4.17210        1.77960       -7.41860
H          3.48260        2.18190       -6.67970
C          5.59580        1.82770       -6.96460
H          6.31150        1.51640       -7.72670
H          5.85190        2.85170       -6.66980
H          5.72300        1.18270       -6.09130
C          0.91390        0.27620       -4.23900
H          1.60900       -0.54590       -4.44160
H          1.35110        0.88290       -3.43840
H         -0.02420       -0.15560       -3.87690
C          0.66780        1.12640       -5.45560
C         -0.17330        2.34890       -5.22590
H         -0.66380        2.69110       -6.14220
H         -0.97190        2.13440       -4.50480
H          0.43800        3.16490       -4.82900
C          1.19170        0.79510       -6.65180
H          1.76370       -0.12880       -6.73390
C          1.15450        1.65540       -7.88950
H          0.16340        1.55700       -8.34990
H          1.28850        2.71230       -7.62440

