%chk=02-IsoP_026_gaussian.chk
%nproc=1
%mem=4000Mb
#p opt mp2/6-31g(d,p)

Conformer number 026. Energy MM = 30.027 kcal/mol

0 1
C          2.18700        1.34170       -8.88310
H          1.92820        0.30080       -9.12130
H          2.04920        1.92120       -9.80610
C          3.66450        1.37900       -8.50050
C          4.04740        1.84880       -7.12300
H          5.06670        2.23990       -7.08250
H          3.41650        2.67380       -6.78280
H          3.96080        1.02400       -6.40960
C          4.57370        0.95290       -9.40460
H          4.21920        0.62360      -10.37960
C          6.05510        0.82820       -9.22090
H          6.40000        1.08370       -8.21830
H          6.35990       -0.20510       -9.41290
H          6.57310        1.47550       -9.93460
C         -2.45890        0.57000       -8.36500
H         -2.77970        1.50210       -8.84090
H         -2.64510       -0.24970       -9.06910
H         -3.08690        0.41930       -7.48160
C         -1.00760        0.60070       -7.96990
C         -0.50490       -0.64940       -7.29940
H          0.30150       -0.45370       -6.58800
H         -1.30610       -1.13820       -6.73490
H         -0.14110       -1.35570       -8.05280
C         -0.24100        1.68130       -8.22030
H         -0.68470        2.53340       -8.73420
C          1.19940        1.86380       -7.82920
H          1.36200        2.93830       -7.67360
H          1.38410        1.38900       -6.86040

