%chk=02-IsoP_003_gaussian.chk
%nproc=1
%mem=4000Mb
#p opt mp2/6-31g(d,p)

Conformer number 003. Energy MM = 26.148 kcal/mol

0 1
C          2.17860        1.26390       -8.98890
H          1.89510        0.25190       -9.30510
H          2.01780        1.90560       -9.86400
C          3.65220        1.31470       -8.62140
C          4.19300        2.67500       -8.27660
H          5.24590        2.78590       -8.55490
H          3.64880        3.45770       -8.81430
H          4.08960        2.86200       -7.20280
C          4.39250        0.18810       -8.61670
H          3.91570       -0.75190       -8.89250
C          5.82760        0.04760       -8.22410
H          6.28210        0.98180       -7.88500
H          5.91190       -0.67500       -7.40430
H          6.40960       -0.32820       -9.07040
C          0.96290        0.32350       -4.21920
H          1.66410       -0.49470       -4.41230
H          1.37510        0.92820       -3.40470
H          0.01880       -0.11840       -3.88310
C          0.73550        1.17790       -5.43660
C         -0.17920        2.35350       -5.23590
H         -0.66960        2.65970       -6.16520
H         -0.97600        2.10590       -4.52720
H          0.38180        3.20700       -4.83890
C          1.32410        0.88380       -6.61160
H          1.95830       -0.00010       -6.66910
C          1.22440        1.71190       -7.86680
H          0.19920        1.64630       -8.25230
H          1.41650        2.76570       -7.62800

