%chk=02-IsoP_015_gaussian.chk
%nproc=1
%mem=4000Mb
#p opt mp2/6-31g(d,p)

Conformer number 015. Energy MM = 28.536 kcal/mol

0 1
C          2.15860        1.25130       -8.96280
H          1.86550        0.22630       -9.22350
H          2.03240        1.86010       -9.86760
C          3.64000        1.25210       -8.58620
C          4.55400        0.76040       -9.67670
H          5.41980        0.22360       -9.27770
H          4.03530        0.05660      -10.33760
H          4.90450        1.60180      -10.28280
C          4.10190        1.66120       -7.38550
H          3.40670        2.00430       -6.62350
C          5.52040        1.74690       -6.92060
H          6.24890        1.45290       -7.67860
H          5.74230        2.77750       -6.62630
H          5.65710        1.10660       -6.04340
C         -2.65670        2.15020       -7.69410
H         -2.83240        1.77070       -8.70580
H         -3.20160        1.50820       -6.99450
H         -3.07560        3.16020       -7.63850
C         -1.19650        2.17660       -7.34320
C         -0.87750        2.66380       -5.95120
H          0.09480        3.15570       -5.89300
H         -1.61820        3.40010       -5.61680
H         -0.88780        1.82400       -5.24830
C         -0.24630        1.78790       -8.21890
H         -0.53050        1.44610       -9.21060
C          1.21520        1.77870       -7.87330
H          1.51140        2.80860       -7.63590
H          1.34110        1.15930       -6.97450

