%chk=03-IsoP_005_gaussian.chk
%nproc=1
%mem=1000Mb
#p opt pm3

Conformer number 005. Energy MM = 23.242 kcal/mol

0 1
C  0.8639    1.0656    0.1140
H  0.6601    0.6640    1.1138
H  0.8467    2.1565    0.2400
C  2.2404    0.6451    -0.3585
C  2.9059    1.5995    -1.3166
H  2.3044    1.7123    -2.2241
H  3.0235    2.5837    -0.8516
H  3.9005    1.2562    -1.6203
C  2.8718    -0.4770    0.0400
H  3.8723    -0.6763    -0.3430
C  2.3515    -1.5374    0.9581
H  1.2972    -1.4128    1.2148
H  2.9346    -1.5462    1.8839
H  2.4565    -2.5168    0.4802
C  -3.8737    0.9041    0.5967
H  -4.6885    0.3817    0.0848
H  -4.0262    0.8139    1.6772
H  -3.9459    1.9658    0.3383
C  -2.5465    0.3086    0.2050
C  -2.4033    -1.1523    0.5323
H  -1.3949    -1.5378    0.3658
H  -2.6378    -1.3253    1.5882
H  -3.0956    -1.7437    -0.0756
C  -1.5973    1.0683    -0.3759
H  -1.8098    2.1237    -0.5469
C  -0.2389    0.6325    -0.8571
H  -0.1987    -0.4493    -1.0211
H  -0.0719    1.0855    -1.8426

