%chk=03-IsoP_001_gaussian.chk
%nproc=1
%mem=1000Mb
#p opt pm3

Conformer number 001. Energy MM = 23.712 kcal/mol

0 1
C  0.6888    0.7493    0.3062
H  0.8041    0.9213    1.3850
H  0.3337    1.7017    -0.1089
C  2.0328    0.4119    -0.3171
C  2.0726    0.4716    -1.8210
H  1.5873    1.3871    -2.1763
H  1.5471    -0.3865    -2.2512
H  3.0875    0.4824    -2.2248
C  3.0902    0.1210    0.4669
H  2.9520    0.1320    1.5481
C  4.4766    -0.2490    0.0448
H  4.5750    -0.4298    -1.0272
H  5.1753    0.5439    0.3284
H  4.7796    -1.1679    0.5574
C  -4.0179    0.6918    1.0481
H  -4.8538    0.0872    0.6811
H  -3.8598    0.4355    2.1009
H  -4.3049    1.7475    1.0025
C  -2.7909    0.4473    0.2088
C  -2.9625    0.7762    -1.2485
H  -2.0313    0.7252    -1.8174
H  -3.6779    0.0867    -1.7083
H  -3.3461    1.7961    -1.3608
C  -1.6568    -0.0166    0.7693
H  -1.6464    -0.2019    1.8436
C  -0.3592    -0.3466    0.0805
H  0.0061    -1.2986    0.4871
H  -0.5117    -0.5229    -0.9887

