%chk=03-IsoP_007_gaussian.chk
%nproc=1
%mem=1000Mb
#p opt pm3

Conformer number 007. Energy MM = 24.539 kcal/mol

0 1
C  0.5727    0.3648    -0.8280
H  0.4347    -0.1194    -1.8046
H  0.2112    1.3966    -0.9360
C  2.0723    0.4249    -0.5517
C  2.8273    1.1480    -1.6407
H  3.8860    1.2961    -1.4216
H  2.7571    0.5892    -2.5798
H  2.3963    2.1426    -1.7992
C  2.6545    -0.1038    0.5441
H  2.0350    -0.5982    1.2896
C  4.1069    -0.1240    0.9069
H  4.7681    0.2358    0.1174
H  4.2730    0.4872    1.7993
H  4.4085    -1.1508    1.1389
C  -2.6418    1.4662    1.2580
H  -3.1846    1.1797    2.1645
H  -1.6071    1.6775    1.5370
H  -3.0664    2.4043    0.8843
C  -2.7720    0.3899    0.2157
C  -4.1691    0.2118    -0.3192
H  -4.8554    -0.0468    0.4939
H  -4.2292    -0.5833    -1.0698
H  -4.5172    1.1382    -0.7879
C  -1.7587    -0.3697    -0.2444
H  -1.9736    -1.1083    -1.0171
C  -0.3183    -0.3511    0.1974
H  -0.2122    0.1107    1.1840
H  0.0054    -1.3935    0.3115

