%chk=PET2_048_gaussian.chk
%nproc=4
%mem=4000Mb
#p 6-31g* mp2

Conformer number 048. Energy MM = 71.630 kcal/mol

0 1
C  0.9058    -2.5700    -0.7995
C  2.6444    0.3901    0.8519
H  2.4901    1.0679    1.6906
C  1.6985    -0.6090    0.5954
H  0.8278    -0.6844    1.2429
C  1.8794    -1.4910    -0.4782
C  3.0150    -1.3608    -1.2898
H  3.1699    -2.0386    -2.1283
C  3.9609    -0.3617    -1.0331
H  4.8319    -0.2861    -1.6802
C  3.7804    0.5204    0.0405
O  4.6110    2.3752    1.2946
C  4.7529    1.6015    0.3613
O  5.7868    1.5879    -0.5157
O  -0.1225    -2.5640    0.0825
O  1.0354    -3.3380    -1.7394
C  6.7934    2.5903    -0.3092
H  7.2675    2.7717    -1.2793
H  6.3510    3.5391    0.0154
C  7.8304    2.0932    0.6804
H  7.3800    1.9045    1.6600
H  8.6340    2.8253    0.8007
H  8.2628    1.1463    0.3409
C  -6.2182    3.1005    1.1143
C  -5.5174    -0.6338    1.0900
H  -5.9177    -1.5447    1.5330
C  -6.1179    0.5940    1.3889
H  -6.9746    0.6159    2.0590
C  -5.6168    1.7750    0.8286
C  -4.5125    1.7184    -0.0314
H  -4.1148    2.6311    -0.4728
C  -3.9118    0.4905    -0.3304
H  -3.0556    0.4756    -1.0011
C  -4.4121    -0.6935    0.2292
O  -4.2209    -3.0676    0.4361
C  -3.8118    -2.0263    -0.0518
O  -2.7645    -1.9087    -0.9033
O  -7.2671    3.0276    1.9517
O  -5.8388    4.1654    0.6641
C  -2.0983    -3.1405    -1.2432
H  -2.8333    -3.9266    -1.4516
H  -1.5579    -2.9455    -2.1744
C  -1.1346    -3.5663    -0.1354
H  -0.6711    -4.5328    -0.3648
H  -1.6619    -3.6764    0.8170
H  -7.5575    3.9590    2.0485
