%chk=01-IsoP_534_gaussian.chk
%nproc=1
%mem=4000Mb
#p opt mp2/6-31g(d,p)

Conformer number 534. Energy MM = 23.287 kcal/mol

0 1
C  -0.8269    0.5236    -0.0011
H  -0.8140    1.4126    0.6408
H  -0.6199    0.9026    -1.0110
C  -2.1965    -0.1235    0.0100
C  -2.5547    -0.8782    -1.2448
H  -3.5561    -1.3184    -1.1926
H  -2.5330    -0.2077    -2.1102
H  -1.8448    -1.6932    -1.4177
C  -3.0727    -0.0367    1.0304
H  -4.0431    -0.5214    0.9265
C  -2.8742    0.6461    2.3465
H  -3.1129    -0.0495    3.1576
H  -3.5479    1.5047    2.4251
H  -1.8511    0.9933    2.5070
C  3.9216    0.8147    -0.2946
H  4.7468    0.0958    -0.2610
H  3.9510    1.3974    0.6321
H  4.0942    1.5049    -1.1269
C  2.6110    0.0943    -0.4766
C  2.5265    -0.7283    -1.7327
H  1.5293    -1.1329    -1.9201
H  3.2276    -1.5675    -1.6808
H  2.7873    -0.1148    -2.6019
C  1.6259    0.2204    0.4339
H  1.7970    0.8616    1.2988
C  0.2770    -0.4483    0.4277
H  0.2751    -1.3390    -0.2083
H  0.0776    -0.8124    1.4440

