%chk=01-IsoP_1339_gaussian.chk
%nproc=1
%mem=4000Mb
#p opt mp2/6-31g(d,p)

Conformer number 1339. Energy MM = 23.242 kcal/mol

0 1
C  0.6154    0.7791    -0.8031
H  0.2425    -0.0117    -1.4648
H  0.3435    1.7175    -1.3049
C  2.1234    0.7041    -0.6806
C  2.8080    2.0183    -0.4052
H  2.5959    2.7322    -1.2079
H  2.4561    2.4424    0.5405
H  3.8958    1.9128    -0.3353
C  2.8432    -0.4265    -0.8236
H  3.9279    -0.3682    -0.7387
C  2.3276    -1.8088    -1.0721
H  2.7521    -2.4945    -0.3317
H  1.2405    -1.8876    -1.0021
H  2.6361    -2.1473    -2.0658
C  -2.1231    -1.6774    0.6916
H  -2.4957    -2.0233    1.6612
H  -2.5863    -2.2861    -0.0925
H  -1.0498    -1.8763    0.6526
C  -2.4703    -0.2278    0.4918
C  -3.9463    0.0434    0.3602
H  -4.3556    -0.4932    -0.5020
H  -4.1632    1.1080    0.2227
H  -4.4737    -0.2892    1.2603
C  -1.5776    0.7786    0.4169
H  -1.9483    1.7901    0.2506
C  -0.0812    0.6918    0.5586
H  0.2205    -0.2209    1.0828
H  0.2427    1.5204    1.2010

