%chk=01-IsoP_3916_gaussian.chk
%nproc=1
%mem=4000Mb
#p opt mp2/6-31g(d,p)

Conformer number 3916. Energy MM = 23.242 kcal/mol

0 1
C  1.0375    0.6021    0.4052
H  1.2848    1.4786    1.0191
H  0.7113    -0.1604    1.1225
C  2.2821    0.1461    -0.3281
C  3.1900    1.2545    -0.7957
H  4.0786    0.8737    -1.3103
H  2.6622    1.9133    -1.4924
H  3.5317    1.8505    0.0569
C  2.6064    -1.1436    -0.5474
H  3.5384    -1.3658    -1.0665
C  1.8143    -2.3574    -0.1767
H  0.8157    -2.1275    0.2012
H  2.3493    -2.9317    0.5856
H  1.6900    -2.9946    -1.0583
C  -3.6071    1.3323    1.1793
H  -3.4086    2.3760    1.4449
H  -4.5094    1.3135    0.5594
H  -3.8094    0.7861    2.1064
C  -2.4556    0.7005    0.4414
C  -2.6853    -0.7324    0.0469
H  -3.4831    -0.7937    -0.7003
H  -2.9867    -1.3190    0.9215
H  -1.7980    -1.2166    -0.3670
C  -1.3319    1.4012    0.1925
H  -1.2735    2.4311    0.5450
C  -0.1083    0.9404    -0.5539
H  -0.3300    0.0841    -1.1993
H  0.1944    1.7486    -1.2317

