%chk=01-IsoP_2323_gaussian.chk
%nproc=1
%mem=4000Mb
#p opt mp2/6-31g(d,p)

Conformer number 2323. Energy MM = 23.242 kcal/mol

0 1
C  0.7889    -0.7839    0.3914
H  0.8114    -0.8967    -0.6991
H  0.6935    -1.8074    0.7783
C  2.0877    -0.1861    0.8920
C  2.4730    -0.5799    2.2949
H  1.7066    -0.2580    3.0069
H  3.4221    -0.1306    2.6059
H  2.5821    -1.6669    2.3677
C  2.8836    0.6222    0.1642
H  3.8104    0.9812    0.6110
C  2.6427    1.1289    -1.2227
H  1.6469    0.8948    -1.6054
H  2.7487    2.2185    -1.2360
H  3.3849    0.7064    -1.9067
C  -2.1238    0.9691    -1.6608
H  -2.8582    1.7733    -1.5490
H  -2.1422    0.6280    -2.7016
H  -1.1320    1.3916    -1.4850
C  -2.4605    -0.1702    -0.7387
C  -3.7423    -0.8849    -1.0791
H  -4.5852    -0.1869    -1.0440
H  -3.6837    -1.3104    -2.0862
H  -3.9596    -1.7032    -0.3846
C  -1.7098    -0.5669    0.3075
H  -2.0476    -1.4210    0.8947
C  -0.4289    0.0484    0.8050
H  -0.4896    0.1089    1.8990
H  -0.3190    1.0817    0.4599

