%chk=01-IsoP_2733_gaussian.chk
%nproc=1
%mem=4000Mb
#p opt mp2/6-31g(d,p)

Conformer number 2733. Energy MM = 23.287 kcal/mol

0 1
C  -0.6541    -0.6369    -0.4829
H  -0.0014    -0.8815    -1.3318
H  -0.7425    -1.5723    0.0824
C  -2.0056    -0.2022    -1.0113
C  -1.9622    0.6097    -2.2807
H  -1.4833    0.0368    -3.0814
H  -2.9623    0.8907    -2.6277
H  -1.3953    1.5331    -2.1258
C  -3.1849    -0.5155    -0.4388
H  -4.1028    -0.1709    -0.9145
C  -3.4089    -1.2862    0.8236
H  -4.0665    -0.7153    1.4872
H  -3.8983    -2.2380    0.5960
H  -2.4899    -1.4931    1.3763
C  3.7937    -0.1969    1.1732
H  4.3990    -0.7702    0.4635
H  3.5541    -0.8561    2.0142
H  4.3994    0.6288    1.5608
C  2.5592    0.3372    0.4947
C  2.8379    1.2565    -0.6624
H  1.9429    1.5263    -1.2276
H  3.3037    2.1806    -0.3051
H  3.5242    0.7752    -1.3677
C  1.3321    -0.0200    0.9213
H  1.2549    -0.7100    1.7618
C  0.0023    0.4405    0.3863
H  0.0980    1.3788    -0.1691
H  -0.6435    0.6710    1.2435

