%chk=01-IsoP_1504_gaussian.chk
%nproc=1
%mem=4000Mb
#p opt mp2/6-31g(d,p)

Conformer number 1504. Energy MM = 23.242 kcal/mol

0 1
C  0.2751    -0.0353    1.1667
H  -0.3283    -0.1443    2.0780
H  0.1709    1.0194    0.8852
C  1.7191    -0.3603    1.4891
C  1.9159    -1.4758    2.4834
H  2.9746    -1.6654    2.6899
H  1.4816    -2.4066    2.1054
H  1.4332    -1.2265    3.4340
C  2.7796    0.2886    0.9687
H  3.7792    -0.0089    1.2844
C  2.7659    1.3925    -0.0410
H  1.7782    1.5806    -0.4677
H  3.1278    2.3185    0.4160
H  3.4350    1.1372    -0.8691
C  -3.6895    0.3082    -1.4539
H  -3.9252    1.3774    -1.4377
H  -4.2687    -0.1720    -0.6582
H  -4.0274    -0.1088    -2.4083
C  -2.2069    0.0975    -1.2898
C  -1.3691    0.7320    -2.3655
H  -0.2964    0.6858    -2.1645
H  -1.5543    0.2402    -3.3259
H  -1.6267    1.7920    -2.4659
C  -1.7238    -0.5985    -0.2421
H  -2.4300    -0.9968    0.4866
C  -0.2858    -0.9296    0.0565
H  0.3375    -0.8587    -0.8409
H  -0.2414    -1.9824    0.3627

