%chk=01-IsoP_394_gaussian.chk
%nproc=1
%mem=4000Mb
#p opt mp2/6-31g(d,p)

Conformer number 394. Energy MM = 23.242 kcal/mol

0 1
C  0.9814    0.6589    0.2732
H  1.1833    1.7383    0.2539
H  0.4743    0.4849    1.2298
C  2.2970    -0.0903    0.2237
C  3.3573    0.5379    -0.6440
H  3.5875    1.5483    -0.2905
H  3.0149    0.6011    -1.6816
H  4.2907    -0.0350    -0.6387
C  2.5534    -1.2237    0.9064
H  3.5425    -1.6725    0.8192
C  1.6156    -1.9888    1.7859
H  1.9601    -1.9448    2.8235
H  0.5868    -1.6241    1.7475
H  1.6006    -3.0388    1.4762
C  -2.7112    -0.7934    0.1165
H  -3.3657    -1.3407    -0.5695
H  -1.8050    -1.3856    0.2621
H  -3.2081    -0.7309    1.0907
C  -2.4440    0.5877    -0.4156
C  -3.6553    1.4825    -0.4527
H  -3.4263    2.4766    -0.8510
H  -4.0613    1.6139    0.5556
H  -4.4319    1.0418    -1.0865
C  -1.2427    1.0404    -0.8249
H  -1.1676    2.0702    -1.1744
C  0.0543    0.2783    -0.8856
H  -0.1154    -0.8034    -0.8980
H  0.5348    0.5114    -1.8442

