%chk=01-IsoP_2667_gaussian.chk
%nproc=1
%mem=4000Mb
#p opt mp2/6-31g(d,p)

Conformer number 2667. Energy MM = 23.242 kcal/mol

0 1
C  -0.5920    0.0749    -1.0452
H  -0.2386    -0.9580    -0.9409
H  -0.2931    0.3736    -2.0590
C  -2.1018    0.1346    -0.9380
C  -2.7513    1.2661    -1.6927
H  -2.3911    2.2305    -1.3212
H  -3.8418    1.2599    -1.5919
H  -2.5175    1.1941    -2.7599
C  -2.8515    -0.7500    -0.2510
H  -3.9346    -0.6304    -0.2559
C  -2.3728    -1.9075    0.5673
H  -2.6873    -2.8466    0.1021
H  -2.8180    -1.8563    1.5662
H  -1.2885    -1.9315    0.6958
C  2.0744    -0.6366    1.8101
H  2.5233    -1.6298    1.7008
H  2.4345    -0.1971    2.7459
H  0.9962    -0.7862    1.9010
C  2.4613    0.2350    0.6472
C  3.9445    0.3073    0.3936
H  4.4599    0.7042    1.2744
H  4.1906    0.9546    -0.4548
H  4.3418    -0.6898    0.1771
C  1.5964    0.9046    -0.1396
H  1.9949    1.4915    -0.9673
C  0.0978    0.9694    -0.0103
H  -0.2302    0.7053    1.0004
H  -0.2055    2.0142    -0.1541

