%chk=01-IsoP_1569_gaussian.chk
%nproc=1
%mem=4000Mb
#p opt mp2/6-31g(d,p)

Conformer number 1569. Energy MM = 23.242 kcal/mol

0 1
C  -0.9002    0.0996    -0.7926
H  -0.9587    -0.9034    -0.3533
H  -0.9693    -0.0634    -1.8766
C  -2.0739    0.9464    -0.3451
C  -2.4963    2.0173    -1.3179
H  -1.6758    2.7201    -1.4935
H  -2.7826    1.5693    -2.2750
H  -3.3529    2.5943    -0.9535
C  -2.7367    0.7754    0.8159
H  -3.5840    1.4252    1.0331
C  -2.4378    -0.2137    1.8979
H  -3.2506    -0.9427    1.9697
H  -2.3622    0.3079    2.8575
H  -1.5008    -0.7544    1.7474
C  2.2288    -1.1248    1.3237
H  2.1738    -2.1979    1.5363
H  3.0879    -0.7108    1.8615
H  1.3236    -0.6745    1.7371
C  2.3873    -0.8995    -0.1548
C  3.5274    -1.6611    -0.7790
H  3.6175    -1.4689    -1.8533
H  4.4747    -1.3754    -0.3100
H  3.3830    -2.7382    -0.6450
C  1.5983    -0.1064    -0.9058
H  1.7996    -0.0365    -1.9749
C  0.4451    0.7444    -0.4441
H  0.5021    0.9499    0.6298
H  0.5326    1.7217    -0.9354

