%chk=01-IsoP_2030_gaussian.chk
%nproc=1
%mem=4000Mb
#p opt mp2/6-31g(d,p)

Conformer number 2030. Energy MM = 23.242 kcal/mol

0 1
C  0.8732    -0.3218    0.8064
H  0.8643    0.7738    0.7602
H  0.8851    -0.5581    1.8790
C  2.1309    -0.8718    0.1659
C  2.6030    -2.1928    0.7171
H  3.5189    -2.5424    0.2290
H  1.8383    -2.9626    0.5738
H  2.8122    -2.1042    1.7881
C  2.8226    -0.2499    -0.8095
H  3.7295    -0.7212    -1.1872
C  2.4847    1.0423    -1.4834
H  3.2354    1.7985    -1.2347
H  2.4915    0.8998    -2.5689
H  1.5002    1.4305    -1.2130
C  -3.6830    1.0362    1.1251
H  -3.6246    2.0956    1.3955
H  -4.5834    0.8794    0.5222
H  -3.7992    0.4628    2.0508
C  -2.4588    0.6271    0.3482
C  -2.2613    1.3820    -0.9374
H  -1.3056    1.1710    -1.4225
H  -2.2884    2.4605    -0.7477
H  -3.0603    1.1366    -1.6444
C  -1.6363    -0.3316    0.8170
H  -1.8733    -0.7966    1.7741
C  -0.3981    -0.8816    0.1604
H  -0.4225    -1.9740    0.2623
H  -0.3948    -0.6876    -0.9172

