%chk=01-IsoP_2566_gaussian.chk
%nproc=1
%mem=4000Mb
#p opt mp2/6-31g(d,p)

Conformer number 2566. Energy MM = 23.242 kcal/mol

0 1
C  0.9805    0.4898    -0.4971
H  1.1527    1.4100    -1.0716
H  0.9457    0.8145    0.5497
C  2.1411    -0.4573    -0.7228
C  2.7117    -0.4471    -2.1178
H  3.0730    0.5545    -2.3728
H  1.9479    -0.7380    -2.8459
H  3.5528    -1.1399    -2.2270
C  2.6723    -1.2501    0.2289
H  3.5228    -1.8795    -0.0319
C  2.2171    -1.4021    1.6459
H  2.9826    -1.0155    2.3255
H  1.2758    -0.8905    1.8585
H  2.0683    -2.4636    1.8689
C  -2.4040    -0.1554    1.4770
H  -2.4222    0.3861    2.4290
H  -1.5255    -0.8042    1.5000
H  -3.2930    -0.7923    1.4261
C  -2.3989    0.8176    0.3303
C  -3.5039    1.8403    0.3805
H  -3.4740    2.5274    -0.4717
H  -3.4255    2.4395    1.2935
H  -4.4797    1.3435    0.3723
C  -1.5001    0.8261    -0.6735
H  -1.5870    1.5947    -1.4417
C  -0.3612    -0.1334    -0.8951
H  -0.5183    -1.0744    -0.3579
H  -0.3512    -0.4007    -1.9594

