%chk=01-IsoP_1364_gaussian.chk
%nproc=1
%mem=4000Mb
#p opt mp2/6-31g(d,p)

Conformer number 1364. Energy MM = 23.242 kcal/mol

0 1
C  -0.8431    0.8561    0.0687
H  -0.8190    1.9471    -0.0559
H  -0.4690    0.6810    1.0845
C  -2.2739    0.3760    -0.0621
C  -3.1031    1.1108    -1.0839
H  -2.6642    1.0048    -2.0809
H  -4.1301    0.7338    -1.1334
H  -3.1535    2.1763    -0.8366
C  -2.8148    -0.6138    0.6756
H  -3.8628    -0.8678    0.5188
C  -2.1340    -1.4572    1.7068
H  -2.5530    -1.2460    2.6952
H  -2.3053    -2.5151    1.4831
H  -1.0532    -1.3052    1.7498
C  3.9099    0.6871    -0.2212
H  4.6338    0.0440    -0.7325
H  3.9240    1.6630    -0.7178
H  4.2430    0.8347    0.8113
C  2.5436    0.0530    -0.2438
C  2.4762    -1.2951    0.4195
H  3.0641    -2.0235    -0.1481
H  2.8870    -1.2358    1.4333
H  1.4593    -1.6825    0.5135
C  1.5006    0.6887    -0.8126
H  1.6676    1.6743    -1.2472
C  0.0864    0.1912    -0.9515
H  0.0331    -0.8987    -0.8616
H  -0.2497    0.4188    -1.9711

