%chk=01-IsoP_3448_gaussian.chk
%nproc=1
%mem=4000Mb
#p opt mp2/6-31g(d,p)

Conformer number 3448. Energy MM = 23.242 kcal/mol

0 1
C  -0.9239    -0.6372    -0.4347
H  -0.9921    -1.5953    -0.9673
H  -0.8040    -0.9102    0.6206
C  -2.2102    0.1355    -0.6422
C  -2.8288    -0.0095    -2.0089
H  -3.7598    0.5592    -2.1052
H  -3.0608    -1.0603    -2.2110
H  -2.1410    0.3504    -2.7805
C  -2.8061    0.8892    0.3031
H  -3.7437    1.3874    0.0582
C  -2.3200    1.1600    1.6919
H  -1.3103    0.7885    1.8804
H  -2.9985    0.7032    2.4186
H  -2.3078    2.2402    1.8694
C  2.4171    0.5377    1.3613
H  3.2086    1.2854    1.2477
H  2.5464    0.0437    2.3304
H  1.4602    1.0632    1.4004
C  2.4988    -0.4742    0.2517
C  3.7335    -1.3365    0.2892
H  4.6317    -0.7141    0.2195
H  3.7635    -2.0563    -0.5355
H  3.7732    -1.9022    1.2258
C  1.5705    -0.6450    -0.7098
H  1.7305    -1.4263    -1.4530
C  0.3041    0.1431    -0.9146
H  0.2158    0.3619    -1.9863
H  0.3532    1.1183    -0.4192

