%chk=01-IsoP_2879_gaussian.chk
%nproc=1
%mem=4000Mb
#p opt mp2/6-31g(d,p)

Conformer number 2879. Energy MM = 23.287 kcal/mol

0 1
C  0.7045    0.1761    0.6496
H  0.8305    1.2305    0.9233
H  0.0988    -0.2542    1.4585
C  2.0444    -0.5294    0.6100
C  1.9958    -2.0061    0.9096
H  1.3676    -2.5249    0.1788
H  1.5821    -2.1771    1.9088
H  2.9882    -2.4683    0.8790
C  3.2197    0.0795    0.3565
H  4.1307    -0.5181    0.3751
C  3.4461    1.5193    0.0195
H  2.5226    2.0770    -0.1511
H  4.0430    1.5899    -0.8956
H  4.0013    2.0069    0.8265
C  -3.8181    1.1414    -0.5053
H  -3.5681    2.2002    -0.6314
H  -4.3611    1.0385    0.4399
H  -4.4873    0.8585    -1.3244
C  -2.5958    0.2608    -0.5041
C  -2.8897    -1.2052    -0.3430
H  -1.9936    -1.8150    -0.2071
H  -3.4242    -1.5806    -1.2215
H  -3.5192    -1.3675    0.5387
C  -1.3648    0.7944    -0.6284
H  -1.2749    1.8770    -0.7207
C  -0.0480    0.0665    -0.6804
H  0.5514    0.5127    -1.4845
H  -0.1819    -0.9826    -0.9625

