%chk=01-IsoP_2579_gaussian.chk
%nproc=1
%mem=4000Mb
#p opt mp2/6-31g(d,p)

Conformer number 2579. Energy MM = 23.242 kcal/mol

0 1
C  0.5349    0.7500    -0.6042
H  0.5284    -0.2461    -1.0626
H  0.1540    1.4218    -1.3852
C  1.9476    1.1619    -0.2448
C  2.2018    2.6475    -0.2549
H  1.5546    3.1515    0.4697
H  3.2380    2.8928    0.0013
H  2.0004    3.0603    -1.2488
C  2.9414    0.2988    0.0453
H  3.9302    0.6983    0.2690
C  2.8576    -1.1928    0.1249
H  3.4531    -1.6416    -0.6758
H  1.8374    -1.5764    0.0535
H  3.2659    -1.5300    1.0831
C  -3.8366    -1.0349    0.0351
H  -4.4492    -1.2947    0.9046
H  -4.2777    -0.1462    -0.4283
H  -3.8968    -1.8527    -0.6906
C  -2.4067    -0.8122    0.4538
C  -1.7598    -2.0039    1.1043
H  -0.6898    -1.8744    1.2815
H  -1.8700    -2.8866    0.4650
H  -2.2386    -2.2135    2.0662
C  -1.8015    0.3706    0.2295
H  -2.3680    1.1574    -0.2689
C  -0.4010    0.7724    0.6086
H  -0.0035    0.1386    1.4080
H  -0.4459    1.7844    1.0307

