%chk=01-IsoP_2165_gaussian.chk
%nproc=1
%mem=4000Mb
#p opt mp2/6-31g(d,p)

Conformer number 2165. Energy MM = 23.287 kcal/mol

0 1
C  -0.8925    -0.1077    -0.3469
H  -0.4937    -0.0127    -1.3659
H  -1.2998    -1.1246    -0.2980
C  -1.9903    0.9175    -0.1511
C  -1.7495    2.2451    -0.8234
H  -0.8382    2.7112    -0.4358
H  -2.5740    2.9476    -0.6617
H  -1.6386    2.1086    -1.9041
C  -3.1255    0.6966    0.5411
H  -3.8630    1.4965    0.6014
C  -3.5133    -0.5426    1.2840
H  -4.3740    -1.0127    0.7988
H  -3.8010    -0.2791    2.3070
H  -2.7096    -1.2790    1.3520
C  3.0294    0.4498    -0.6918
H  3.3758    0.2709    -1.7156
H  2.2721    1.2351    -0.7478
H  3.8710    0.8328    -0.1057
C  2.5195    -0.8300    -0.0889
C  3.4863    -1.9824    -0.1717
H  3.0859    -2.8950    0.2824
H  3.7209    -2.2069    -1.2173
H  4.4169    -1.7335    0.3488
C  1.3074    -0.9898    0.4775
H  1.0411    -1.9732    0.8656
C  0.2392    0.0529    0.6732
H  -0.1582    -0.0597    1.6903
H  0.6554    1.0644    0.6316

