%chk=01-IsoP_406_gaussian.chk
%nproc=1
%mem=4000Mb
#p opt mp2/6-31g(d,p)

Conformer number 406. Energy MM = 23.242 kcal/mol

0 1
C  -0.8790    -0.3834    0.7272
H  -0.6569    0.6554    0.9994
H  -0.8821    -0.9294    1.6802
C  -2.2517    -0.4865    0.0949
C  -2.9458    -1.8103    0.2878
H  -3.0781    -2.0176    1.3548
H  -3.9365    -1.8311    -0.1785
H  -2.3561    -2.6197    -0.1540
C  -2.8565    0.5126    -0.5779
H  -3.8568    0.3426    -0.9755
C  -2.3058    1.8701    -0.8814
H  -2.8790    2.6320    -0.3447
H  -2.3963    2.0685    -1.9542
H  -1.2515    1.9814    -0.6183
C  3.8656    0.0057    0.9305
H  4.6853    -0.1128    0.2142
H  4.0311    0.9257    1.5006
H  3.9140    -0.8335    1.6323
C  2.5465    0.0704    0.2056
C  2.4357    1.2033    -0.7773
H  3.1334    1.0510    -1.6071
H  1.4336    1.3183    -1.1963
H  2.6845    2.1510    -0.2876
C  1.5765    -0.8286    0.4630
H  1.7662    -1.5967    1.2129
C  0.2221    -0.9302    -0.1868
H  0.2017    -0.4196    -1.1551
H  0.0360    -1.9887    -0.4087

