%chk=01-IsoP_1471_gaussian.chk
%nproc=1
%mem=4000Mb
#p opt mp2/6-31g(d,p)

Conformer number 1471. Energy MM = 23.287 kcal/mol

0 1
C  -0.7527    0.1565    0.5726
H  -0.9044    1.2028    0.8633
H  -0.2072    -0.2931    1.4132
C  -2.0822    -0.5521    0.4139
C  -2.0486    -2.0359    0.6777
H  -1.7102    -2.2320    1.7003
H  -1.3646    -2.5333    -0.0170
H  -3.0335    -2.5004    0.5605
C  -3.2382    0.0596    0.0886
H  -4.1450    -0.5412    0.0231
C  -3.4461    1.5071    -0.2268
H  -2.5153    2.0720    -0.3128
H  -4.0629    1.9715    0.5486
H  -3.9729    1.5998    -1.1820
C  2.9130    -1.1867    -0.1825
H  3.4753    -1.3701    0.7395
H  3.5139    -1.5371    -1.0278
H  2.0124    -1.8028    -0.1304
C  2.6244    0.2821    -0.3271
C  3.8388    1.1664    -0.2133
H  3.5935    2.2272    -0.3302
H  4.3098    1.0403    0.7671
H  4.5691    0.9073    -0.9869
C  1.4035    0.8149    -0.5296
H  1.3152    1.8992    -0.6002
C  0.0981    0.0844    -0.6995
H  -0.4415    0.5498    -1.5345
H  0.2582    -0.9564    -0.9979

