%chk=01-IsoP_3936_gaussian.chk
%nproc=1
%mem=4000Mb
#p opt mp2/6-31g(d,p)

Conformer number 3936. Energy MM = 23.242 kcal/mol

0 1
C  -0.7548    0.6618    -0.7190
H  -0.5839    -0.2792    -1.2555
H  -0.6033    1.4467    -1.4721
C  -2.1801    0.7339    -0.2109
C  -2.7415    2.1264    -0.0794
H  -2.1466    2.7138    0.6270
H  -3.7755    2.1245    0.2813
H  -2.7308    2.6332    -1.0500
C  -2.9359    -0.3407    0.0903
H  -3.9596    -0.1802    0.4273
C  -2.5321    -1.7804    0.0415
H  -2.7633    -2.2563    1.0000
H  -1.4661    -1.9280    -0.1455
H  -3.0958    -2.2981    -0.7403
C  3.9359    -0.1659    -0.5932
H  4.1318    0.8241    -1.0183
H  4.6724    -0.3389    0.1984
H  4.0951    -0.9051    -1.3851
C  2.5398    -0.2854    -0.0400
C  2.2262    -1.6267    0.5636
H  1.1758    -1.7440    0.8394
H  2.8311    -1.7856    1.4621
H  2.4563    -2.4236    -0.1519
C  1.6797    0.7490    -0.1165
H  2.0155    1.6691    -0.5951
C  0.2704    0.8128    0.4093
H  0.1425    1.7826    0.9068
H  0.0965    0.0601    1.1852

