%chk=01-IsoP_2949_gaussian.chk
%nproc=1
%mem=4000Mb
#p opt mp2/6-31g(d,p)

Conformer number 2949. Energy MM = 23.287 kcal/mol

0 1
C  -0.8275    -0.0366    -0.6031
H  -0.3779    0.5542    -1.4125
H  -1.0482    -1.0108    -1.0554
C  -2.1030    0.6427    -0.1486
C  -2.0551    2.1494    -0.1430
H  -1.8419    2.5260    -1.1487
H  -1.2735    2.5055    0.5354
H  -3.0020    2.5932    0.1825
C  -3.2281    -0.0080    0.2081
H  -4.0996    0.5787    0.4976
C  -3.4412    -1.4868    0.2820
H  -2.5256    -2.0661    0.1437
H  -3.8464    -1.7479    1.2650
H  -4.1652    -1.7963    -0.4778
C  3.7914    -1.2133    -0.6132
H  4.6211    -1.1063    0.0932
H  3.5287    -2.2754    -0.6584
H  4.1392    -0.9143    -1.6074
C  2.6301    -0.3540    -0.1858
C  2.9453    1.1139    -0.0996
H  3.3929    1.4577    -1.0384
H  2.0656    1.7369    0.0771
H  3.6588    1.2987    0.7099
C  1.4278    -0.9041    0.0739
H  1.3142    -1.9823    -0.0410
C  0.1783    -0.2055    0.5401
H  0.4082    0.7618    0.9978
H  -0.2667    -0.8109    1.3404

