%chk=01-IsoP_2297_gaussian.chk
%nproc=1
%mem=4000Mb
#p opt mp2/6-31g(d,p)

Conformer number 2297. Energy MM = 23.287 kcal/mol

0 1
C  -0.8652    -0.2855    0.3299
H  -1.0657    0.7191    0.7262
H  -0.8112    -0.9310    1.2147
C  -2.0155    -0.6999    -0.5644
C  -2.6111    0.4106    -1.3918
H  -3.4442    0.0643    -2.0126
H  -2.9912    1.2059    -0.7422
H  -1.8568    0.8375    -2.0602
C  -2.5192    -1.9482    -0.6298
H  -3.3653    -2.1347    -1.2908
C  -2.0391    -3.1640    0.0977
H  -1.1008    -3.0079    0.6346
H  -1.8736    -3.9755    -0.6184
H  -2.7980    -3.4920    0.8144
C  3.4006    1.4839    1.5096
H  3.1677    2.2947    2.2076
H  4.3105    1.7472    0.9604
H  3.6173    0.5881    2.1010
C  2.2568    1.2746    0.5517
C  1.9276    2.4761    -0.2906
H  1.7790    3.3535    0.3482
H  1.0152    2.3566    -0.8793
H  2.7501    2.6884    -0.9812
C  1.6094    0.0940    0.5026
H  1.9272    -0.7011    1.1774
C  0.4767    -0.2965    -0.4091
H  0.4353    0.3471    -1.2935
H  0.6836    -1.3053    -0.7893

