%chk=01-IsoP_1003_gaussian.chk
%nproc=1
%mem=4000Mb
#p opt mp2/6-31g(d,p)

Conformer number 1003. Energy MM = 23.287 kcal/mol

0 1
C  -0.7986    -0.3535    0.3237
H  -0.9925    -1.4185    0.1490
H  -0.3080    -0.3140    1.3056
C  -2.0980    0.4221    0.3917
C  -2.0543    1.6649    1.2437
H  -3.0182    2.1842    1.2696
H  -1.3107    2.3687    0.8569
H  -1.7888    1.4091    2.2747
C  -3.2389    0.0540    -0.2243
H  -4.1260    0.6726    -0.0907
C  -3.4519    -1.1261    -1.1186
H  -4.1338    -1.8361    -0.6409
H  -3.9082    -0.7945    -2.0570
H  -2.5289    -1.6512    -1.3739
C  2.9393    1.0003    0.4067
H  2.0500    1.5844    0.6539
H  3.6083    1.6358    -0.1825
H  3.4353    0.7632    1.3542
C  2.6328    -0.2652    -0.3458
C  3.8173    -1.1768    -0.5338
H  3.5600    -2.0839    -1.0908
H  4.2167    -1.4856    0.4378
H  4.6080    -0.6602    -1.0876
C  1.4198    -0.6083    -0.8216
H  1.3151    -1.5633    -1.3368
C  0.1455    0.1906    -0.7532
H  0.3483    1.2533    -0.5873
H  -0.3399    0.1341    -1.7362

