%chk=01-IsoP_3470_gaussian.chk
%nproc=1
%mem=4000Mb
#p opt mp2/6-31g(d,p)

Conformer number 3470. Energy MM = 23.242 kcal/mol

0 1
C  -0.7571    0.7235    0.8061
H  -0.6213    1.6614    1.3613
H  -0.4413    -0.0631    1.5018
C  -2.2219    0.5663    0.4536
C  -2.9352    1.8468    0.1023
H  -3.9916    1.6816    -0.1347
H  -2.8903    2.5488    0.9414
H  -2.4708    2.3165    -0.7704
C  -2.8854    -0.6068    0.4637
H  -3.9464    -0.6079    0.2155
C  -2.3307    -1.9640    0.7615
H  -1.2427    -1.9789    0.8565
H  -2.7648    -2.3473    1.6899
H  -2.5962    -2.6517    -0.0480
C  2.3193    -1.5305    -0.3002
H  2.6946    -2.1337    0.5337
H  2.8543    -1.8274    -1.2080
H  1.2664    -1.7912    -0.4291
C  2.5440    -0.0697    -0.0221
C  3.9641    0.2811    0.3381
H  4.0929    1.3520    0.5274
H  4.2701    -0.2553    1.2422
H  4.6405    0.0044    -0.4772
C  1.5910    0.8818    -0.0651
H  1.8706    1.9077    0.1752
C  0.1413    0.7141    -0.4348
H  -0.1314    1.5407    -1.1032
H  -0.0221    -0.1992    -1.0163

