%chk=01-IsoP_2798_gaussian.chk
%nproc=1
%mem=4000Mb
#p opt mp2/6-31g(d,p)

Conformer number 2798. Energy MM = 23.242 kcal/mol

0 1
C  0.4692    1.0819    -0.2407
H  0.0262    2.0529    -0.5001
H  0.4625    0.5109    -1.1768
C  1.8890    1.2999    0.2402
C  2.1028    2.5508    1.0534
H  1.8334    3.4353    0.4670
H  3.1452    2.6677    1.3683
H  1.4855    2.5302    1.9569
C  2.9203    0.4768    -0.0345
H  3.9095    0.7370    0.3411
C  2.8807    -0.8086    -0.7991
H  1.8686    -1.1422    -1.0386
H  3.3525    -1.5994    -0.2070
H  3.4405    -0.7027    -1.7332
C  -1.6493    -2.2765    -0.2870
H  -0.5746    -2.2098    -0.1033
H  -2.0659    -3.0116    0.4091
H  -1.7729    -2.6584    -1.3062
C  -2.3640    -0.9615    -0.1388
C  -3.8093    -0.9906    -0.5627
H  -3.8897    -1.2679    -1.6189
H  -4.2999    -0.0198    -0.4356
H  -4.3635    -1.7232    0.0332
C  -1.8042    0.1766    0.3160
H  -2.4192    1.0756    0.3613
C  -0.3952    0.3747    0.8080
H  -0.4424    0.9762    1.7247
H  0.0644    -0.5742    1.1033

