%chk=06-PVA_3695_gaussian.chk
%nproc=1
%mem=4000Mb
#p opt mp2/6-31g(d,p)

Conformer number 3695. Energy MM = 1.086 kcal/mol

0 1
C  -2.5174    -0.1035    0.5012
H  -2.6195    0.9511    0.7756
H  -2.4720    -0.6962    1.4204
H  -3.4183    -0.3965    -0.0472
C  -1.2818    -0.3363    -0.3582
H  -1.3758    0.2735    -1.2649
H  -1.2569    -1.3875    -0.6680
C  0.0143    0.0199    0.3785
H  0.0728    -0.5500    1.3129
C  1.2434    -0.2854    -0.4851
H  1.2298    -1.3373    -0.7930
H  1.2214    0.3259    -1.3954
C  2.5485    -0.0014    0.2466
H  3.4010    -0.2591    -0.3899
H  2.6352    1.0570    0.5115
H  2.6194    -0.5936    1.1645
O  0.0038    1.4033    0.7237
H  -0.0480    1.9159    -0.1011

